     Program PWSCF v.6.5 starts on 13Aug2020 at  0:22:23

     R & G space division:  proc/nbgrp/npool/nimage =       2
     Reading input from FeAlb162.in

     Current dimensions of program PWSCF are:
     Max number of different atomic species (ntypx) = 10
     Max number of k-points (npk) =  40000
     Max angular momentum in pseudopotentials (lmaxx) =  3

     IMPORTANT: XC functional enforced from input :
     Exchange-correlation= PBE
                           (   1   4   3   4   0   0   0)
     Any further DFT definition will be discarded
     Please, verify this is what you really want

               file Fe.pbe-spn-kjpaw_psl.0.2.1.UPF: wavefunction(s)  3D renormalized
               file Al.pbe-n-kjpaw_psl.0.1.UPF: wavefunction(s)  3S renormalized

     Subspace diagonalization in iterative solution of the eigenvalue problem:
     a serial algorithm will be used

     Message from routine setup:
     using ibrav=0 with symmetry is DISCOURAGED, use correct ibrav instead

     bravais-lattice index     =            0
     lattice parameter (alat)  =       4.8581  a.u.
     unit-cell volume          =     321.7172 (a.u.)^3
     number of atoms/cell      =            4
     number of atomic types    =            2
     number of electrons       =        38.00
     number of Kohn-Sham states=           23
     kinetic-energy cutoff     =      70.0000  Ry
     charge density cutoff     =     700.0000  Ry
     convergence threshold     =      1.0E-08
     mixing beta               =       0.7000
     number of iterations used =            8  plain     mixing
     Exchange-correlation= PBE
                           (   1   4   3   4   0   0   0)

     celldm(1)=   4.858098  celldm(2)=   0.000000  celldm(3)=   0.000000
     celldm(4)=   0.000000  celldm(5)=   0.000000  celldm(6)=   0.000000

     crystal axes: (cart. coord. in units of alat)
               a(1) = (   1.000000   0.000000   0.000000 )
               a(2) = (   0.000000   1.620000   0.000000 )
               a(3) = (   0.000000   0.000000   1.732050 )

     reciprocal axes: (cart. coord. in units 2 pi/alat)
               b(1) = (  1.000000  0.000000  0.000000 )
               b(2) = (  0.000000  0.617284  0.000000 )
               b(3) = (  0.000000  0.000000  0.577351 )

     PseudoPot. # 1 for Fe read from file:
     ./Fe.pbe-spn-kjpaw_psl.0.2.1.UPF
     MD5 check sum: 4338034a7fd945be4bb7db5fd3b2d142
     Pseudo is Projector augmented-wave + core cor, Zval = 16.0
     Generated using "atomic" code by A. Dal Corso v.5.0.2 svn rev. 9415
     Shape of augmentation charge: PSQ
     Using radial grid of 1191 points,  6 beta functions with:
                l(1) =   0
                l(2) =   0
                l(3) =   1
                l(4) =   1
                l(5) =   2
                l(6) =   2
     Q(r) pseudized with 0 coefficients

     PseudoPot. # 2 for Al read from file:
     ./Al.pbe-n-kjpaw_psl.0.1.UPF
     MD5 check sum: 9111391c6252b599ac5002cf021b5091
     Pseudo is Projector augmented-wave + core cor, Zval =  3.0
     Generated using "atomic" code by A. Dal Corso v.5.0.2 svn rev. 9415
     Shape of augmentation charge: PSQ
     Using radial grid of 1135 points,  4 beta functions with:
                l(1) =   0
                l(2) =   0
                l(3) =   1
                l(4) =   1
     Q(r) pseudized with 0 coefficients

     atomic species   valence    mass     pseudopotential
        Fe            16.00    55.84500     Fe( 1.00)
        Al             3.00    26.98100     Al( 1.00)

      8 Sym. Ops., with inversion, found ( 6 have fractional translation)

   Cartesian axes

     site n.     atom                  positions (alat units)
         1           Fe  tau(   1) = (   0.7500000   1.2150000   1.5877123  )
         2           Fe  tau(   2) = (   0.2500000   0.4050000   0.1443375  )
         3           Al  tau(   3) = (   0.2500000   1.2150000   0.7216874  )
         4           Al  tau(   4) = (   0.7500000   0.4050000   1.0103624  )

     number of k points=    36  Marzari-Vanderbilt smearing, width (Ry)=  0.0050
                       cart. coord. in units 2pi/alat
        k(    1) = (   0.0000000   0.0000000   0.0000000), wk =   0.0208333
        k(    2) = (   0.0000000   0.0000000   0.1443377), wk =   0.0416667
        k(    3) = (   0.0000000   0.0000000  -0.2886753), wk =   0.0208333
        k(    4) = (   0.0000000   0.1543210   0.0000000), wk =   0.0416667
        k(    5) = (   0.0000000   0.1543210   0.1443377), wk =   0.0833333
        k(    6) = (   0.0000000   0.1543210  -0.2886753), wk =   0.0416667
        k(    7) = (   0.0000000  -0.3086420   0.0000000), wk =   0.0208333
        k(    8) = (   0.0000000  -0.3086420   0.1443377), wk =   0.0416667
        k(    9) = (   0.0000000  -0.3086420  -0.2886753), wk =   0.0208333
        k(   10) = (   0.1666667   0.0000000   0.0000000), wk =   0.0416667
        k(   11) = (   0.1666667   0.0000000   0.1443377), wk =   0.0833333
        k(   12) = (   0.1666667   0.0000000  -0.2886753), wk =   0.0416667
        k(   13) = (   0.1666667   0.1543210   0.0000000), wk =   0.0833333
        k(   14) = (   0.1666667   0.1543210   0.1443377), wk =   0.1666667
        k(   15) = (   0.1666667   0.1543210  -0.2886753), wk =   0.0833333
        k(   16) = (   0.1666667  -0.3086420   0.0000000), wk =   0.0416667
        k(   17) = (   0.1666667  -0.3086420   0.1443377), wk =   0.0833333
        k(   18) = (   0.1666667  -0.3086420  -0.2886753), wk =   0.0416667
        k(   19) = (   0.3333333   0.0000000   0.0000000), wk =   0.0416667
        k(   20) = (   0.3333333   0.0000000   0.1443377), wk =   0.0833333
        k(   21) = (   0.3333333   0.0000000  -0.2886753), wk =   0.0416667
        k(   22) = (   0.3333333   0.1543210   0.0000000), wk =   0.0833333
        k(   23) = (   0.3333333   0.1543210   0.1443377), wk =   0.1666667
        k(   24) = (   0.3333333   0.1543210  -0.2886753), wk =   0.0833333
        k(   25) = (   0.3333333  -0.3086420   0.0000000), wk =   0.0416667
        k(   26) = (   0.3333333  -0.3086420   0.1443377), wk =   0.0833333
        k(   27) = (   0.3333333  -0.3086420  -0.2886753), wk =   0.0416667
        k(   28) = (  -0.5000000   0.0000000   0.0000000), wk =   0.0208333
        k(   29) = (  -0.5000000   0.0000000   0.1443377), wk =   0.0416667
        k(   30) = (  -0.5000000   0.0000000  -0.2886753), wk =   0.0208333
        k(   31) = (  -0.5000000   0.1543210   0.0000000), wk =   0.0416667
        k(   32) = (  -0.5000000   0.1543210   0.1443377), wk =   0.0833333
        k(   33) = (  -0.5000000   0.1543210  -0.2886753), wk =   0.0416667
        k(   34) = (  -0.5000000  -0.3086420   0.0000000), wk =   0.0208333
        k(   35) = (  -0.5000000  -0.3086420   0.1443377), wk =   0.0416667
        k(   36) = (  -0.5000000  -0.3086420  -0.2886753), wk =   0.0208333

     Check: negative core charge=   -0.000013

     Initial potential from superposition of free atoms

     starting charge   37.99454, renormalised to   38.00000
     Starting wfcs are   34 randomized atomic wfcs
     Checking if some PAW data can be deallocated...

     Self-consistent Calculation

     iteration #  1     ecut=    70.00 Ry     beta= 0.70
     Davidson diagonalization with overlap
     ethr =  1.00E-02,  avg # of iterations =  3.0

     Threshold (ethr) on eigenvalues was too large:
     Diagonalizing with lowered threshold

     Davidson diagonalization with overlap
     ethr =  3.62E-04,  avg # of iterations =  3.8

     total energy              =    -737.47264388 Ry
     Harris-Foulkes estimate   =    -737.58081936 Ry
     estimated scf accuracy    <       0.14845702 Ry

[...]

     total energy              =    -737.54225658 Ry
     Harris-Foulkes estimate   =    -737.54225661 Ry
     estimated scf accuracy    <       0.00000008 Ry

     iteration #  9     ecut=    70.00 Ry     beta= 0.70
     Davidson diagonalization with overlap
     ethr =  2.04E-10,  avg # of iterations =  3.6

     End of self-consistent calculation

          k = 0.0000 0.0000 0.0000 (  3207 PWs)   bands (ev):

   -72.5453 -72.5027 -38.8211 -38.5761 -38.5687 -38.4994 -38.4627 -38.4587
     3.0408   9.3902  10.1803  10.6365  10.8236  11.9068  12.2440  13.0355
    13.2205  13.3944  14.0120  14.1824  15.0082  15.0238  16.4368

[...]

          k = 0.3333-0.3086-0.2887 (  3164 PWs)   bands (ev):

[...]

          k =-0.5000 0.0000 0.0000 (  3156 PWs)   bands (ev):

[...]

          k =-0.5000-0.3086-0.2887 (  3144 PWs)   bands (ev):

   -72.5041 -72.5041 -38.7889 -38.7889 -38.6094 -38.6094 -38.4410 -38.4410
     9.9702   9.9702  10.2922  10.2922  11.2486  11.2486  12.9853  12.9853
    13.0895  13.0895  14.0879  14.0879  14.9914  14.9914  16.3112

     the Fermi energy is    14.1773 ev

!    total energy              =    -737.54225659 Ry
     Harris-Foulkes estimate   =    -737.54225660 Ry
     estimated scf accuracy    <          2.1E-09 Ry

     total all-electron energy =     -6062.420891 Ry

     The total energy is the sum of the following terms:

     one-electron contribution =    -357.47012228 Ry
     hartree contribution      =     199.74628848 Ry
     xc contribution           =     -75.81327669 Ry
     ewald contribution        =    -283.17618379 Ry
     one-center paw contrib.   =    -220.82863063 Ry
     smearing contrib. (-TS)   =      -0.00033168 Ry

     convergence has been achieved in   9 iterations

     Forces acting on atoms (cartesian axes, Ry/au):

     atom    1 type  1   force =     0.00000000    0.00000000   -0.01360310
     atom    2 type  1   force =     0.00000000    0.00000000    0.01360310
     atom    3 type  2   force =     0.00000000    0.00000000   -0.02366114
     atom    4 type  2   force =     0.00000000    0.00000000    0.02366114

     Total force =     0.038598     Total SCF correction =     0.000076

     Computing stress (Cartesian axis) and pressure

          total   stress  (Ry/bohr**3)                   (kbar)     P=       30.52
   0.00108996   0.00000000   0.00000000          160.34        0.00        0.00
   0.00000000   0.00030628   0.00000000            0.00       45.06        0.00
   0.00000000   0.00000000  -0.00077378            0.00        0.00     -113.83

     Writing output data file ./basic.save/

     General routines

     Parallel routines

   This run was terminated on:   0:23:40  13Aug2020

   JOB DONE.