     Program PWSCF v.6.5 starts on 12Aug2020 at  0: 1:49

     R & G space division:  proc/nbgrp/npool/nimage =       2
     Reading input from FeAl.in

     Current dimensions of program PWSCF are:
     Max number of different atomic species (ntypx) = 10
     Max number of k-points (npk) =  40000
     Max angular momentum in pseudopotentials (lmaxx) =  3

     IMPORTANT: XC functional enforced from input :
     Exchange-correlation= PBE
                           (   1   4   3   4   0   0   0)
     Any further DFT definition will be discarded
     Please, verify this is what you really want

               file Fe.pbe-spn-kjpaw_psl.0.2.1.UPF: wavefunction(s)  3D renormalized
               file Al.pbe-n-kjpaw_psl.0.1.UPF: wavefunction(s)  3S renormalized

     Subspace diagonalization in iterative solution of the eigenvalue problem:
     a serial algorithm will be used

     Message from routine setup:
     using ibrav=0 with symmetry is DISCOURAGED, use correct ibrav instead

     bravais-lattice index     =            0
     lattice parameter (alat)  =       5.1138  a.u.
     unit-cell volume          =     378.2419 (a.u.)^3
     number of atoms/cell      =            4
     number of atomic types    =            2
     number of electrons       =        38.00
     number of Kohn-Sham states=           23
     kinetic-energy cutoff     =      70.0000  Ry
     charge density cutoff     =     700.0000  Ry
     convergence threshold     =      1.0E-08
     mixing beta               =       0.7000
     number of iterations used =            8  plain     mixing
     Exchange-correlation= PBE
                           (   1   4   3   4   0   0   0)

     celldm(1)=   5.113788  celldm(2)=   0.000000  celldm(3)=   0.000000
     celldm(4)=   0.000000  celldm(5)=   0.000000  celldm(6)=   0.000000

     crystal axes: (cart. coord. in units of alat)
               a(1) = (   1.000000   0.000000   0.000000 )
               a(2) = (   0.000000   1.632981   0.000000 )
               a(3) = (   0.000000   0.000000   1.732050 )

     reciprocal axes: (cart. coord. in units 2 pi/alat)
               b(1) = (  1.000000  0.000000  0.000000 )
               b(2) = (  0.000000  0.612377  0.000000 )
               b(3) = (  0.000000  0.000000  0.577351 )

     PseudoPot. # 1 for Fe read from file:
     ./Fe.pbe-spn-kjpaw_psl.0.2.1.UPF
     MD5 check sum: 4338034a7fd945be4bb7db5fd3b2d142
     Pseudo is Projector augmented-wave + core cor, Zval = 16.0
     Generated using "atomic" code by A. Dal Corso v.5.0.2 svn rev. 9415
     Shape of augmentation charge: PSQ
     Using radial grid of 1191 points,  6 beta functions with:
                l(1) =   0
                l(2) =   0
                l(3) =   1
                l(4) =   1
                l(5) =   2
                l(6) =   2
     Q(r) pseudized with 0 coefficients

     PseudoPot. # 2 for Al read from file:
     ./Al.pbe-n-kjpaw_psl.0.1.UPF
     MD5 check sum: 9111391c6252b599ac5002cf021b5091
     Pseudo is Projector augmented-wave + core cor, Zval =  3.0
     Generated using "atomic" code by A. Dal Corso v.5.0.2 svn rev. 9415
     Shape of augmentation charge: PSQ
     Using radial grid of 1135 points,  4 beta functions with:
                l(1) =   0
                l(2) =   0
                l(3) =   1
                l(4) =   1
     Q(r) pseudized with 0 coefficients

     atomic species   valence    mass     pseudopotential
        Fe            16.00    55.84500     Fe( 1.00)
        Al             3.00    26.98100     Al( 1.00)

      8 Sym. Ops., with inversion, found ( 6 have fractional translation)

   Cartesian axes

     site n.     atom                  positions (alat units)
         1           Fe  tau(   1) = (   0.7500000   1.2247358   1.5877123  )
         2           Fe  tau(   2) = (   0.2500000   0.4082453   0.1443375  )
         3           Al  tau(   3) = (   0.2500000   1.2247358   0.7216874  )
         4           Al  tau(   4) = (   0.7500000   0.4082453   1.0103624  )

     number of k points=    36  Marzari-Vanderbilt smearing, width (Ry)=  0.0050
                       cart. coord. in units 2pi/alat
        k(    1) = (   0.0000000   0.0000000   0.0000000), wk =   0.0208333
        k(    2) = (   0.0000000   0.0000000   0.1443377), wk =   0.0416667
        k(    3) = (   0.0000000   0.0000000  -0.2886753), wk =   0.0208333
        k(    4) = (   0.0000000   0.1530942   0.0000000), wk =   0.0416667
        k(    5) = (   0.0000000   0.1530942   0.1443377), wk =   0.0833333
        k(    6) = (   0.0000000   0.1530942  -0.2886753), wk =   0.0416667
        k(    7) = (   0.0000000  -0.3061885   0.0000000), wk =   0.0208333
        k(    8) = (   0.0000000  -0.3061885   0.1443377), wk =   0.0416667
        k(    9) = (   0.0000000  -0.3061885  -0.2886753), wk =   0.0208333
        k(   10) = (   0.1666667   0.0000000   0.0000000), wk =   0.0416667
        k(   11) = (   0.1666667   0.0000000   0.1443377), wk =   0.0833333
        k(   12) = (   0.1666667   0.0000000  -0.2886753), wk =   0.0416667
        k(   13) = (   0.1666667   0.1530942   0.0000000), wk =   0.0833333
        k(   14) = (   0.1666667   0.1530942   0.1443377), wk =   0.1666667
        k(   15) = (   0.1666667   0.1530942  -0.2886753), wk =   0.0833333
        k(   16) = (   0.1666667  -0.3061885   0.0000000), wk =   0.0416667
        k(   17) = (   0.1666667  -0.3061885   0.1443377), wk =   0.0833333
        k(   18) = (   0.1666667  -0.3061885  -0.2886753), wk =   0.0416667
        k(   19) = (   0.3333333   0.0000000   0.0000000), wk =   0.0416667
        k(   20) = (   0.3333333   0.0000000   0.1443377), wk =   0.0833333
        k(   21) = (   0.3333333   0.0000000  -0.2886753), wk =   0.0416667
        k(   22) = (   0.3333333   0.1530942   0.0000000), wk =   0.0833333
        k(   23) = (   0.3333333   0.1530942   0.1443377), wk =   0.1666667
        k(   24) = (   0.3333333   0.1530942  -0.2886753), wk =   0.0833333
        k(   25) = (   0.3333333  -0.3061885   0.0000000), wk =   0.0416667
        k(   26) = (   0.3333333  -0.3061885   0.1443377), wk =   0.0833333
        k(   27) = (   0.3333333  -0.3061885  -0.2886753), wk =   0.0416667
        k(   28) = (  -0.5000000   0.0000000   0.0000000), wk =   0.0208333
        k(   29) = (  -0.5000000   0.0000000   0.1443377), wk =   0.0416667
        k(   30) = (  -0.5000000   0.0000000  -0.2886753), wk =   0.0208333
        k(   31) = (  -0.5000000   0.1530942   0.0000000), wk =   0.0416667
        k(   32) = (  -0.5000000   0.1530942   0.1443377), wk =   0.0833333
        k(   33) = (  -0.5000000   0.1530942  -0.2886753), wk =   0.0416667
        k(   34) = (  -0.5000000  -0.3061885   0.0000000), wk =   0.0208333
        k(   35) = (  -0.5000000  -0.3061885   0.1443377), wk =   0.0416667
        k(   36) = (  -0.5000000  -0.3061885  -0.2886753), wk =   0.0208333

     Check: negative core charge=   -0.000012

     Initial potential from superposition of free atoms

     starting charge   37.99454, renormalised to   38.00000
     Starting wfcs are   34 randomized atomic wfcs
     Checking if some PAW data can be deallocated...

     Self-consistent Calculation

     iteration #  1     ecut=    70.00 Ry     beta= 0.70
     Davidson diagonalization with overlap
     ethr =  1.00E-02,  avg # of iterations =  2.7

     Threshold (ethr) on eigenvalues was too large:
     Diagonalizing with lowered threshold

     Davidson diagonalization with overlap
     ethr =  8.17E-04,  avg # of iterations =  3.2

     total energy              =    -737.30345327 Ry
     Harris-Foulkes estimate   =    -737.55657549 Ry
     estimated scf accuracy    <       0.31303185 Ry

[...]

     total energy              =    -737.51204142 Ry
     Harris-Foulkes estimate   =    -737.51204144 Ry
     estimated scf accuracy    <       0.00000004 Ry

     iteration #  9     ecut=    70.00 Ry     beta= 0.70
     Davidson diagonalization with overlap
     ethr =  1.16E-10,  avg # of iterations =  3.8

     End of self-consistent calculation

          k = 0.0000 0.0000 0.0000 (  3693 PWs)   bands (ev):

   -74.9986 -74.9785 -41.2057 -41.0713 -41.0632 -41.0251 -40.9161 -40.9150
     1.5197   7.3527   8.1447   8.4765   8.8188   9.8529   9.9932  10.6672
    10.8732  10.9989  11.5015  11.6267  12.2454  12.2883  13.3136

[...]

          k = 0.3333-0.3062-0.2887 (  3732 PWs)   bands (ev):

[...]

          k =-0.5000 0.0000 0.0000 (  3734 PWs)   bands (ev):

[...]

          k =-0.5000-0.3062-0.2887 (  3736 PWs)   bands (ev):

   -74.9786 -74.9786 -41.1886 -41.1886 -41.0912 -41.0912 -40.9050 -40.9050
     7.9303   7.9303   8.3054   8.3054   9.1529   9.1529  10.6796  10.6796
    10.7878  10.7878  11.5687  11.5687  12.2428  12.2428  13.2087

     the Fermi energy is    11.6102 ev

!    total energy              =    -737.51204144 Ry
     Harris-Foulkes estimate   =    -737.51204144 Ry
     estimated scf accuracy    <          1.8E-09 Ry

     total all-electron energy =     -6062.390676 Ry

     The total energy is the sum of the following terms:

     one-electron contribution =    -380.54838381 Ry
     hartree contribution      =     207.79599177 Ry
     xc contribution           =     -75.40961665 Ry
     ewald contribution        =    -268.57378233 Ry
     one-center paw contrib.   =    -220.77625424 Ry
     smearing contrib. (-TS)   =       0.00000382 Ry

     convergence has been achieved in   9 iterations

     Forces acting on atoms (cartesian axes, Ry/au):

     atom    1 type  1   force =     0.00000000    0.00000000   -0.00785159
     atom    2 type  1   force =     0.00000000    0.00000000    0.00785159
     atom    3 type  2   force =     0.00000000    0.00000000   -0.02007385
     atom    4 type  2   force =     0.00000000    0.00000000    0.02007385

     Total force =     0.030483     Total SCF correction =     0.000089

     Computing stress (Cartesian axis) and pressure

          total   stress  (Ry/bohr**3)                   (kbar)     P=     -185.62
  -0.00065946   0.00000000   0.00000000          -97.01        0.00        0.00
   0.00000000  -0.00119756   0.00000000            0.00     -176.17        0.00
   0.00000000   0.00000000  -0.00192835            0.00        0.00     -283.67

     Writing output data file ./basic.save/

     General routines

     Parallel routines

   This run was terminated on:   0: 3: 4  12Aug2020

   JOB DONE.