     Program PWSCF v.6.5 starts on 12Aug2020 at  1: 4:34

     R & G space division:  proc/nbgrp/npool/nimage =       2
     Reading input from FeAl10.in

     Current dimensions of program PWSCF are:
     Max number of different atomic species (ntypx) = 10
     Max number of k-points (npk) =  40000
     Max angular momentum in pseudopotentials (lmaxx) =  3

     IMPORTANT: XC functional enforced from input :
     Exchange-correlation= PBE
                           (   1   4   3   4   0   0   0)
     Any further DFT definition will be discarded
     Please, verify this is what you really want

               file Fe.pbe-spn-kjpaw_psl.0.2.1.UPF: wavefunction(s)  3D renormalized
               file Al.pbe-n-kjpaw_psl.0.1.UPF: wavefunction(s)  3S renormalized

     Subspace diagonalization in iterative solution of the eigenvalue problem:
     a serial algorithm will be used

     Message from routine setup:
     using ibrav=0 with symmetry is DISCOURAGED, use correct ibrav instead

     bravais-lattice index     =            0
     lattice parameter (alat)  =       4.6024  a.u.
     unit-cell volume          =     275.7384 (a.u.)^3
     number of atoms/cell      =            4
     number of atomic types    =            2
     number of electrons       =        38.00
     number of Kohn-Sham states=           23
     kinetic-energy cutoff     =      70.0000  Ry
     charge density cutoff     =     700.0000  Ry
     convergence threshold     =      1.0E-08
     mixing beta               =       0.7000
     number of iterations used =            8  plain     mixing
     Exchange-correlation= PBE
                           (   1   4   3   4   0   0   0)

     celldm(1)=   4.602409  celldm(2)=   0.000000  celldm(3)=   0.000000
     celldm(4)=   0.000000  celldm(5)=   0.000000  celldm(6)=   0.000000

     crystal axes: (cart. coord. in units of alat)
               a(1) = (   1.000000   0.000000   0.000000 )
               a(2) = (   0.000000   1.632981   0.000000 )
               a(3) = (   0.000000   0.000000   1.732050 )

     reciprocal axes: (cart. coord. in units 2 pi/alat)
               b(1) = (  1.000000  0.000000  0.000000 )
               b(2) = (  0.000000  0.612377  0.000000 )
               b(3) = (  0.000000  0.000000  0.577351 )

     PseudoPot. # 1 for Fe read from file:
     ./Fe.pbe-spn-kjpaw_psl.0.2.1.UPF
     MD5 check sum: 4338034a7fd945be4bb7db5fd3b2d142
     Pseudo is Projector augmented-wave + core cor, Zval = 16.0
     Generated using "atomic" code by A. Dal Corso v.5.0.2 svn rev. 9415
     Shape of augmentation charge: PSQ
     Using radial grid of 1191 points,  6 beta functions with:
                l(1) =   0
                l(2) =   0
                l(3) =   1
                l(4) =   1
                l(5) =   2
                l(6) =   2
     Q(r) pseudized with 0 coefficients

     PseudoPot. # 2 for Al read from file:
     ./Al.pbe-n-kjpaw_psl.0.1.UPF
     MD5 check sum: 9111391c6252b599ac5002cf021b5091
     Pseudo is Projector augmented-wave + core cor, Zval =  3.0
     Generated using "atomic" code by A. Dal Corso v.5.0.2 svn rev. 9415
     Shape of augmentation charge: PSQ
     Using radial grid of 1135 points,  4 beta functions with:
                l(1) =   0
                l(2) =   0
                l(3) =   1
                l(4) =   1
     Q(r) pseudized with 0 coefficients

     atomic species   valence    mass     pseudopotential
        Fe            16.00    55.84500     Fe( 1.00)
        Al             3.00    26.98100     Al( 1.00)

      8 Sym. Ops., with inversion, found ( 6 have fractional translation)

   Cartesian axes

     site n.     atom                  positions (alat units)
         1           Fe  tau(   1) = (   0.7500000   1.2247358   1.5877123  )
         2           Fe  tau(   2) = (   0.2500000   0.4082453   0.1443375  )
         3           Al  tau(   3) = (   0.2500000   1.2247358   0.7216874  )
         4           Al  tau(   4) = (   0.7500000   0.4082453   1.0103624  )

     number of k points=    36  Marzari-Vanderbilt smearing, width (Ry)=  0.0050
                       cart. coord. in units 2pi/alat
        k(    1) = (   0.0000000   0.0000000   0.0000000), wk =   0.0208333
        k(    2) = (   0.0000000   0.0000000   0.1443377), wk =   0.0416667
        k(    3) = (   0.0000000   0.0000000  -0.2886753), wk =   0.0208333
        k(    4) = (   0.0000000   0.1530942   0.0000000), wk =   0.0416667
        k(    5) = (   0.0000000   0.1530942   0.1443377), wk =   0.0833333
        k(    6) = (   0.0000000   0.1530942  -0.2886753), wk =   0.0416667
        k(    7) = (   0.0000000  -0.3061885   0.0000000), wk =   0.0208333
        k(    8) = (   0.0000000  -0.3061885   0.1443377), wk =   0.0416667
        k(    9) = (   0.0000000  -0.3061885  -0.2886753), wk =   0.0208333
        k(   10) = (   0.1666667   0.0000000   0.0000000), wk =   0.0416667
        k(   11) = (   0.1666667   0.0000000   0.1443377), wk =   0.0833333
        k(   12) = (   0.1666667   0.0000000  -0.2886753), wk =   0.0416667
        k(   13) = (   0.1666667   0.1530942   0.0000000), wk =   0.0833333
        k(   14) = (   0.1666667   0.1530942   0.1443377), wk =   0.1666667
        k(   15) = (   0.1666667   0.1530942  -0.2886753), wk =   0.0833333
        k(   16) = (   0.1666667  -0.3061885   0.0000000), wk =   0.0416667
        k(   17) = (   0.1666667  -0.3061885   0.1443377), wk =   0.0833333
        k(   18) = (   0.1666667  -0.3061885  -0.2886753), wk =   0.0416667
        k(   19) = (   0.3333333   0.0000000   0.0000000), wk =   0.0416667
        k(   20) = (   0.3333333   0.0000000   0.1443377), wk =   0.0833333
        k(   21) = (   0.3333333   0.0000000  -0.2886753), wk =   0.0416667
        k(   22) = (   0.3333333   0.1530942   0.0000000), wk =   0.0833333
        k(   23) = (   0.3333333   0.1530942   0.1443377), wk =   0.1666667
        k(   24) = (   0.3333333   0.1530942  -0.2886753), wk =   0.0833333
        k(   25) = (   0.3333333  -0.3061885   0.0000000), wk =   0.0416667
        k(   26) = (   0.3333333  -0.3061885   0.1443377), wk =   0.0833333
        k(   27) = (   0.3333333  -0.3061885  -0.2886753), wk =   0.0416667
        k(   28) = (  -0.5000000   0.0000000   0.0000000), wk =   0.0208333
        k(   29) = (  -0.5000000   0.0000000   0.1443377), wk =   0.0416667
        k(   30) = (  -0.5000000   0.0000000  -0.2886753), wk =   0.0208333
        k(   31) = (  -0.5000000   0.1530942   0.0000000), wk =   0.0416667
        k(   32) = (  -0.5000000   0.1530942   0.1443377), wk =   0.0833333
        k(   33) = (  -0.5000000   0.1530942  -0.2886753), wk =   0.0416667
        k(   34) = (  -0.5000000  -0.3061885   0.0000000), wk =   0.0208333
        k(   35) = (  -0.5000000  -0.3061885   0.1443377), wk =   0.0416667
        k(   36) = (  -0.5000000  -0.3061885  -0.2886753), wk =   0.0208333

     Check: negative core charge=   -0.000013

     Initial potential from superposition of free atoms

     starting charge   37.99454, renormalised to   38.00000
     Starting wfcs are   34 randomized atomic wfcs
     Checking if some PAW data can be deallocated...

     Self-consistent Calculation

     iteration #  1     ecut=    70.00 Ry     beta= 0.70
     Davidson diagonalization with overlap
     ethr =  1.00E-02,  avg # of iterations =  3.1

     Threshold (ethr) on eigenvalues was too large:
     Diagonalizing with lowered threshold

     Davidson diagonalization with overlap
     ethr =  2.35E-04,  avg # of iterations =  4.0

     total energy              =    -737.44150444 Ry
     Harris-Foulkes estimate   =    -737.50977377 Ry
     estimated scf accuracy    <       0.10481394 Ry

[...]

     total energy              =    -737.47210078 Ry
     Harris-Foulkes estimate   =    -737.47210079 Ry
     estimated scf accuracy    <       0.00000001 Ry

     iteration # 10     ecut=    70.00 Ry     beta= 0.70
     Davidson diagonalization with overlap
     ethr =  3.33E-11,  avg # of iterations =  2.0

     End of self-consistent calculation

          k = 0.0000 0.0000 0.0000 (  2733 PWs)   bands (ev):

   -69.8660 -69.7863 -36.2316 -35.8319 -35.8229 -35.7852 -35.7752 -35.7205
     4.8056  11.5683  12.4729  12.9569  13.0060  14.1077  14.7238  15.5439
    15.8349  16.0045  16.7703  16.9897  18.0321  18.0444  19.8198

[...]

          k = 0.3333-0.3062-0.2887 (  2748 PWs)   bands (ev):

[...]

          k =-0.5000 0.0000 0.0000 (  2728 PWs)   bands (ev):

[...]

          k =-0.5000-0.3062-0.2887 (  2744 PWs)   bands (ev):

   -69.7862 -69.7862 -36.2038 -36.2038 -35.8914 -35.8914 -35.7437 -35.7437
    12.1543  12.1543  12.4824  12.4824  13.6296  13.6296  15.5210  15.5210
    15.5831  15.5831  16.9244  16.9244  18.0192  18.0192  19.7654

     the Fermi energy is    16.9801 ev

!    total energy              =    -737.47210078 Ry
     Harris-Foulkes estimate   =    -737.47210078 Ry
     estimated scf accuracy    <          6.7E-11 Ry

     total all-electron energy =     -6062.350735 Ry

     The total energy is the sum of the following terms:

     one-electron contribution =    -333.47315121 Ry
     hartree contribution      =     191.59104491 Ry
     xc contribution           =     -76.28187988 Ry
     ewald contribution        =    -298.41531370 Ry
     one-center paw contrib.   =    -220.89228133 Ry
     smearing contrib. (-TS)   =      -0.00051957 Ry

     convergence has been achieved in  10 iterations

     Forces acting on atoms (cartesian axes, Ry/au):

     atom    1 type  1   force =     0.00000000    0.00000000   -0.01897271
     atom    2 type  1   force =     0.00000000    0.00000000    0.01897271
     atom    3 type  2   force =     0.00000000    0.00000000   -0.02544581
     atom    4 type  2   force =     0.00000000    0.00000000    0.02544581

     Total force =     0.044888     Total SCF correction =     0.000037

     Computing stress (Cartesian axis) and pressure

          total   stress  (Ry/bohr**3)                   (kbar)     P=      433.54
   0.00428494   0.00000000   0.00000000          630.34        0.00        0.00
   0.00000000   0.00293161   0.00000000            0.00      431.26        0.00
   0.00000000   0.00000000   0.00162479            0.00        0.00      239.02

     Writing output data file ./basic.save/

     General routines

     Parallel routines

   This run was terminated on:   1: 5:31  12Aug2020

   JOB DONE.