     Program PWSCF v.6.5 starts on 13Aug2020 at  0:25: 1

     R & G space division:  proc/nbgrp/npool/nimage =       2
     Reading input from FeAlb170.in

     Current dimensions of program PWSCF are:
     Max number of different atomic species (ntypx) = 10
     Max number of k-points (npk) =  40000
     Max angular momentum in pseudopotentials (lmaxx) =  3

     IMPORTANT: XC functional enforced from input :
     Exchange-correlation= PBE
                           (   1   4   3   4   0   0   0)
     Any further DFT definition will be discarded
     Please, verify this is what you really want

               file Fe.pbe-spn-kjpaw_psl.0.2.1.UPF: wavefunction(s)  3D renormalized
               file Al.pbe-n-kjpaw_psl.0.1.UPF: wavefunction(s)  3S renormalized

     Subspace diagonalization in iterative solution of the eigenvalue problem:
     a serial algorithm will be used

     Message from routine setup:
     using ibrav=0 with symmetry is DISCOURAGED, use correct ibrav instead

     bravais-lattice index     =            0
     lattice parameter (alat)  =       4.8581  a.u.
     unit-cell volume          =     337.6045 (a.u.)^3
     number of atoms/cell      =            4
     number of atomic types    =            2
     number of electrons       =        38.00
     number of Kohn-Sham states=           23
     kinetic-energy cutoff     =      70.0000  Ry
     charge density cutoff     =     700.0000  Ry
     convergence threshold     =      1.0E-08
     mixing beta               =       0.7000
     number of iterations used =            8  plain     mixing
     Exchange-correlation= PBE
                           (   1   4   3   4   0   0   0)

     celldm(1)=   4.858098  celldm(2)=   0.000000  celldm(3)=   0.000000
     celldm(4)=   0.000000  celldm(5)=   0.000000  celldm(6)=   0.000000

     crystal axes: (cart. coord. in units of alat)
               a(1) = (   1.000000   0.000000   0.000000 )
               a(2) = (   0.000000   1.700000   0.000000 )
               a(3) = (   0.000000   0.000000   1.732050 )

     reciprocal axes: (cart. coord. in units 2 pi/alat)
               b(1) = (  1.000000  0.000000  0.000000 )
               b(2) = (  0.000000  0.588235  0.000000 )
               b(3) = (  0.000000  0.000000  0.577351 )

     PseudoPot. # 1 for Fe read from file:
     ./Fe.pbe-spn-kjpaw_psl.0.2.1.UPF
     MD5 check sum: 4338034a7fd945be4bb7db5fd3b2d142
     Pseudo is Projector augmented-wave + core cor, Zval = 16.0
     Generated using "atomic" code by A. Dal Corso v.5.0.2 svn rev. 9415
     Shape of augmentation charge: PSQ
     Using radial grid of 1191 points,  6 beta functions with:
                l(1) =   0
                l(2) =   0
                l(3) =   1
                l(4) =   1
                l(5) =   2
                l(6) =   2
     Q(r) pseudized with 0 coefficients

     PseudoPot. # 2 for Al read from file:
     ./Al.pbe-n-kjpaw_psl.0.1.UPF
     MD5 check sum: 9111391c6252b599ac5002cf021b5091
     Pseudo is Projector augmented-wave + core cor, Zval =  3.0
     Generated using "atomic" code by A. Dal Corso v.5.0.2 svn rev. 9415
     Shape of augmentation charge: PSQ
     Using radial grid of 1135 points,  4 beta functions with:
                l(1) =   0
                l(2) =   0
                l(3) =   1
                l(4) =   1
     Q(r) pseudized with 0 coefficients

     atomic species   valence    mass     pseudopotential
        Fe            16.00    55.84500     Fe( 1.00)
        Al             3.00    26.98100     Al( 1.00)

      8 Sym. Ops., with inversion, found ( 6 have fractional translation)

   Cartesian axes

     site n.     atom                  positions (alat units)
         1           Fe  tau(   1) = (   0.7500000   1.2750000   1.5877123  )
         2           Fe  tau(   2) = (   0.2500000   0.4250000   0.1443375  )
         3           Al  tau(   3) = (   0.2500000   1.2750000   0.7216874  )
         4           Al  tau(   4) = (   0.7500000   0.4250000   1.0103624  )

     number of k points=    36  Marzari-Vanderbilt smearing, width (Ry)=  0.0050
                       cart. coord. in units 2pi/alat
        k(    1) = (   0.0000000   0.0000000   0.0000000), wk =   0.0208333
        k(    2) = (   0.0000000   0.0000000   0.1443377), wk =   0.0416667
        k(    3) = (   0.0000000   0.0000000  -0.2886753), wk =   0.0208333
        k(    4) = (   0.0000000   0.1470588   0.0000000), wk =   0.0416667
        k(    5) = (   0.0000000   0.1470588   0.1443377), wk =   0.0833333
        k(    6) = (   0.0000000   0.1470588  -0.2886753), wk =   0.0416667
        k(    7) = (   0.0000000  -0.2941176   0.0000000), wk =   0.0208333
        k(    8) = (   0.0000000  -0.2941176   0.1443377), wk =   0.0416667
        k(    9) = (   0.0000000  -0.2941176  -0.2886753), wk =   0.0208333
        k(   10) = (   0.1666667   0.0000000   0.0000000), wk =   0.0416667
        k(   11) = (   0.1666667   0.0000000   0.1443377), wk =   0.0833333
        k(   12) = (   0.1666667   0.0000000  -0.2886753), wk =   0.0416667
        k(   13) = (   0.1666667   0.1470588   0.0000000), wk =   0.0833333
        k(   14) = (   0.1666667   0.1470588   0.1443377), wk =   0.1666667
        k(   15) = (   0.1666667   0.1470588  -0.2886753), wk =   0.0833333
        k(   16) = (   0.1666667  -0.2941176   0.0000000), wk =   0.0416667
        k(   17) = (   0.1666667  -0.2941176   0.1443377), wk =   0.0833333
        k(   18) = (   0.1666667  -0.2941176  -0.2886753), wk =   0.0416667
        k(   19) = (   0.3333333   0.0000000   0.0000000), wk =   0.0416667
        k(   20) = (   0.3333333   0.0000000   0.1443377), wk =   0.0833333
        k(   21) = (   0.3333333   0.0000000  -0.2886753), wk =   0.0416667
        k(   22) = (   0.3333333   0.1470588   0.0000000), wk =   0.0833333
        k(   23) = (   0.3333333   0.1470588   0.1443377), wk =   0.1666667
        k(   24) = (   0.3333333   0.1470588  -0.2886753), wk =   0.0833333
        k(   25) = (   0.3333333  -0.2941176   0.0000000), wk =   0.0416667
        k(   26) = (   0.3333333  -0.2941176   0.1443377), wk =   0.0833333
        k(   27) = (   0.3333333  -0.2941176  -0.2886753), wk =   0.0416667
        k(   28) = (  -0.5000000   0.0000000   0.0000000), wk =   0.0208333
        k(   29) = (  -0.5000000   0.0000000   0.1443377), wk =   0.0416667
        k(   30) = (  -0.5000000   0.0000000  -0.2886753), wk =   0.0208333
        k(   31) = (  -0.5000000   0.1470588   0.0000000), wk =   0.0416667
        k(   32) = (  -0.5000000   0.1470588   0.1443377), wk =   0.0833333
        k(   33) = (  -0.5000000   0.1470588  -0.2886753), wk =   0.0416667
        k(   34) = (  -0.5000000  -0.2941176   0.0000000), wk =   0.0208333
        k(   35) = (  -0.5000000  -0.2941176   0.1443377), wk =   0.0416667
        k(   36) = (  -0.5000000  -0.2941176  -0.2886753), wk =   0.0208333

     Check: negative core charge=   -0.000012

     Initial potential from superposition of free atoms

     starting charge   37.99454, renormalised to   38.00000
     Starting wfcs are   34 randomized atomic wfcs
     Checking if some PAW data can be deallocated...

     Self-consistent Calculation

     iteration #  1     ecut=    70.00 Ry     beta= 0.70
     Davidson diagonalization with overlap
     ethr =  1.00E-02,  avg # of iterations =  2.8

     Threshold (ethr) on eigenvalues was too large:
     Diagonalizing with lowered threshold

     Davidson diagonalization with overlap
     ethr =  4.76E-04,  avg # of iterations =  3.7

     total energy              =    -737.43561677 Ry
     Harris-Foulkes estimate   =    -737.58098160 Ry
     estimated scf accuracy    <       0.19128764 Ry

[...]

     total energy              =    -737.54156235 Ry
     Harris-Foulkes estimate   =    -737.54156238 Ry
     estimated scf accuracy    <       0.00000006 Ry

     iteration #  9     ecut=    70.00 Ry     beta= 0.70
     Davidson diagonalization with overlap
     ethr =  1.54E-10,  avg # of iterations =  3.3

     End of self-consistent calculation

          k = 0.0000 0.0000 0.0000 (  3323 PWs)   bands (ev):

   -73.3348 -73.3069 -39.5604 -39.3905 -39.3794 -39.3455 -39.2368 -39.2327
     2.5894   8.6028   9.6440   9.6827  10.2036  11.2331  11.4672  12.0878
    12.5819  12.6205  13.2457  13.3829  14.0610  14.1478  15.3623

[...]

          k = 0.3333-0.2941-0.2887 (  3332 PWs)   bands (ev):

[...]

          k =-0.5000 0.0000 0.0000 (  3300 PWs)   bands (ev):

[...]

          k =-0.5000-0.2941-0.2887 (  3376 PWs)   bands (ev):

   -73.3010 -73.3010 -39.5816 -39.5816 -39.4234 -39.4234 -39.2159 -39.2159
     9.3389   9.3389   9.7548   9.7548  10.6395  10.6395  12.2573  12.2573
    12.3518  12.3518  13.3534  13.3534  14.0885  14.0885  15.4798

     the Fermi energy is    13.3284 ev

!    total energy              =    -737.54156237 Ry
     Harris-Foulkes estimate   =    -737.54156237 Ry
     estimated scf accuracy    <          3.3E-09 Ry

     total all-electron energy =     -6062.420197 Ry

     The total energy is the sum of the following terms:

     one-electron contribution =    -361.33376257 Ry
     hartree contribution      =     200.56292431 Ry
     xc contribution           =     -75.68904254 Ry
     ewald contribution        =    -280.26959494 Ry
     one-center paw contrib.   =    -220.81190535 Ry
     smearing contrib. (-TS)   =      -0.00018129 Ry

     convergence has been achieved in   9 iterations

     Forces acting on atoms (cartesian axes, Ry/au):

     atom    1 type  1   force =     0.00000000    0.00000000   -0.00333085
     atom    2 type  1   force =     0.00000000    0.00000000    0.00333085
     atom    3 type  2   force =     0.00000000    0.00000000   -0.01983487
     atom    4 type  2   force =     0.00000000    0.00000000    0.01983487

     Total force =     0.028444     Total SCF correction =     0.000149

     Computing stress (Cartesian axis) and pressure

          total   stress  (Ry/bohr**3)                   (kbar)     P=      -47.30
   0.00058596   0.00000000   0.00000000           86.20        0.00        0.00
   0.00000000  -0.00057230   0.00000000            0.00      -84.19        0.00
   0.00000000   0.00000000  -0.00097829            0.00        0.00     -143.91

     Writing output data file ./basic.save/

     General routines

     Parallel routines

   This run was terminated on:   0:26: 9  13Aug2020

   JOB DONE.