     Program PWSCF v.6.5 starts on 12Aug2020 at  1: 6:13

     R & G space division:  proc/nbgrp/npool/nimage =       2
     Reading input from FeAl15.in

     Current dimensions of program PWSCF are:
     Max number of different atomic species (ntypx) = 10
     Max number of k-points (npk) =  40000
     Max angular momentum in pseudopotentials (lmaxx) =  3

     IMPORTANT: XC functional enforced from input :
     Exchange-correlation= PBE
                           (   1   4   3   4   0   0   0)
     Any further DFT definition will be discarded
     Please, verify this is what you really want

               file Fe.pbe-spn-kjpaw_psl.0.2.1.UPF: wavefunction(s)  3D renormalized
               file Al.pbe-n-kjpaw_psl.0.1.UPF: wavefunction(s)  3S renormalized

     Subspace diagonalization in iterative solution of the eigenvalue problem:
     a serial algorithm will be used

     Message from routine setup:
     using ibrav=0 with symmetry is DISCOURAGED, use correct ibrav instead

     bravais-lattice index     =            0
     lattice parameter (alat)  =       4.3467  a.u.
     unit-cell volume          =     232.2878 (a.u.)^3
     number of atoms/cell      =            4
     number of atomic types    =            2
     number of electrons       =        38.00
     number of Kohn-Sham states=           23
     kinetic-energy cutoff     =      70.0000  Ry
     charge density cutoff     =     700.0000  Ry
     convergence threshold     =      1.0E-08
     mixing beta               =       0.7000
     number of iterations used =            8  plain     mixing
     Exchange-correlation= PBE
                           (   1   4   3   4   0   0   0)

     celldm(1)=   4.346720  celldm(2)=   0.000000  celldm(3)=   0.000000
     celldm(4)=   0.000000  celldm(5)=   0.000000  celldm(6)=   0.000000

     crystal axes: (cart. coord. in units of alat)
               a(1) = (   1.000000   0.000000   0.000000 )
               a(2) = (   0.000000   1.632981   0.000000 )
               a(3) = (   0.000000   0.000000   1.732050 )

     reciprocal axes: (cart. coord. in units 2 pi/alat)
               b(1) = (  1.000000  0.000000  0.000000 )
               b(2) = (  0.000000  0.612377  0.000000 )
               b(3) = (  0.000000  0.000000  0.577351 )

     PseudoPot. # 1 for Fe read from file:
     ./Fe.pbe-spn-kjpaw_psl.0.2.1.UPF
     MD5 check sum: 4338034a7fd945be4bb7db5fd3b2d142
     Pseudo is Projector augmented-wave + core cor, Zval = 16.0
     Generated using "atomic" code by A. Dal Corso v.5.0.2 svn rev. 9415
     Shape of augmentation charge: PSQ
     Using radial grid of 1191 points,  6 beta functions with:
                l(1) =   0
                l(2) =   0
                l(3) =   1
                l(4) =   1
                l(5) =   2
                l(6) =   2
     Q(r) pseudized with 0 coefficients

     PseudoPot. # 2 for Al read from file:
     ./Al.pbe-n-kjpaw_psl.0.1.UPF
     MD5 check sum: 9111391c6252b599ac5002cf021b5091
     Pseudo is Projector augmented-wave + core cor, Zval =  3.0
     Generated using "atomic" code by A. Dal Corso v.5.0.2 svn rev. 9415
     Shape of augmentation charge: PSQ
     Using radial grid of 1135 points,  4 beta functions with:
                l(1) =   0
                l(2) =   0
                l(3) =   1
                l(4) =   1
     Q(r) pseudized with 0 coefficients

     atomic species   valence    mass     pseudopotential
        Fe            16.00    55.84500     Fe( 1.00)
        Al             3.00    26.98100     Al( 1.00)

      8 Sym. Ops., with inversion, found ( 6 have fractional translation)

   Cartesian axes

     site n.     atom                  positions (alat units)
         1           Fe  tau(   1) = (   0.7500000   1.2247358   1.5877123  )
         2           Fe  tau(   2) = (   0.2500000   0.4082453   0.1443375  )
         3           Al  tau(   3) = (   0.2500000   1.2247358   0.7216874  )
         4           Al  tau(   4) = (   0.7500000   0.4082453   1.0103624  )

     number of k points=    36  Marzari-Vanderbilt smearing, width (Ry)=  0.0050
                       cart. coord. in units 2pi/alat
        k(    1) = (   0.0000000   0.0000000   0.0000000), wk =   0.0208333
        k(    2) = (   0.0000000   0.0000000   0.1443377), wk =   0.0416667
        k(    3) = (   0.0000000   0.0000000  -0.2886753), wk =   0.0208333
        k(    4) = (   0.0000000   0.1530942   0.0000000), wk =   0.0416667
        k(    5) = (   0.0000000   0.1530942   0.1443377), wk =   0.0833333
        k(    6) = (   0.0000000   0.1530942  -0.2886753), wk =   0.0416667
        k(    7) = (   0.0000000  -0.3061885   0.0000000), wk =   0.0208333
        k(    8) = (   0.0000000  -0.3061885   0.1443377), wk =   0.0416667
        k(    9) = (   0.0000000  -0.3061885  -0.2886753), wk =   0.0208333
        k(   10) = (   0.1666667   0.0000000   0.0000000), wk =   0.0416667
        k(   11) = (   0.1666667   0.0000000   0.1443377), wk =   0.0833333
        k(   12) = (   0.1666667   0.0000000  -0.2886753), wk =   0.0416667
        k(   13) = (   0.1666667   0.1530942   0.0000000), wk =   0.0833333
        k(   14) = (   0.1666667   0.1530942   0.1443377), wk =   0.1666667
        k(   15) = (   0.1666667   0.1530942  -0.2886753), wk =   0.0833333
        k(   16) = (   0.1666667  -0.3061885   0.0000000), wk =   0.0416667
        k(   17) = (   0.1666667  -0.3061885   0.1443377), wk =   0.0833333
        k(   18) = (   0.1666667  -0.3061885  -0.2886753), wk =   0.0416667
        k(   19) = (   0.3333333   0.0000000   0.0000000), wk =   0.0416667
        k(   20) = (   0.3333333   0.0000000   0.1443377), wk =   0.0833333
        k(   21) = (   0.3333333   0.0000000  -0.2886753), wk =   0.0416667
        k(   22) = (   0.3333333   0.1530942   0.0000000), wk =   0.0833333
        k(   23) = (   0.3333333   0.1530942   0.1443377), wk =   0.1666667
        k(   24) = (   0.3333333   0.1530942  -0.2886753), wk =   0.0833333
        k(   25) = (   0.3333333  -0.3061885   0.0000000), wk =   0.0416667
        k(   26) = (   0.3333333  -0.3061885   0.1443377), wk =   0.0833333
        k(   27) = (   0.3333333  -0.3061885  -0.2886753), wk =   0.0416667
        k(   28) = (  -0.5000000   0.0000000   0.0000000), wk =   0.0208333
        k(   29) = (  -0.5000000   0.0000000   0.1443377), wk =   0.0416667
        k(   30) = (  -0.5000000   0.0000000  -0.2886753), wk =   0.0208333
        k(   31) = (  -0.5000000   0.1530942   0.0000000), wk =   0.0416667
        k(   32) = (  -0.5000000   0.1530942   0.1443377), wk =   0.0833333
        k(   33) = (  -0.5000000   0.1530942  -0.2886753), wk =   0.0416667
        k(   34) = (  -0.5000000  -0.3061885   0.0000000), wk =   0.0208333
        k(   35) = (  -0.5000000  -0.3061885   0.1443377), wk =   0.0416667
        k(   36) = (  -0.5000000  -0.3061885  -0.2886753), wk =   0.0208333

     Check: negative core charge=   -0.000013

     Initial potential from superposition of free atoms

     starting charge   37.99454, renormalised to   38.00000
     Starting wfcs are   34 randomized atomic wfcs
     Checking if some PAW data can be deallocated...

     Self-consistent Calculation

     iteration #  1     ecut=    70.00 Ry     beta= 0.70
     Davidson diagonalization with overlap
     ethr =  1.00E-02,  avg # of iterations =  3.1

     Threshold (ethr) on eigenvalues was too large:
     Diagonalizing with lowered threshold

     Davidson diagonalization with overlap
     ethr =  2.14E-04,  avg # of iterations =  4.1

     total energy              =    -737.20988729 Ry
     Harris-Foulkes estimate   =    -737.27171243 Ry
     estimated scf accuracy    <       0.09850803 Ry

[...]

     total energy              =    -737.23243253 Ry
     Harris-Foulkes estimate   =    -737.23243261 Ry
     estimated scf accuracy    <       0.00000015 Ry

     iteration #  9     ecut=    70.00 Ry     beta= 0.70
     Davidson diagonalization with overlap
     ethr =  3.87E-10,  avg # of iterations =  2.0

     End of self-consistent calculation

          k = 0.0000 0.0000 0.0000 (  2273 PWs)   bands (ev):

   -66.4413 -66.2809 -32.9627 -32.3669 -32.3426 -32.3028 -32.2468 -32.1111
     7.1998  14.3861  15.4301  15.7717  16.0931  16.9016  18.0084  18.7990
    19.1389  19.4067  20.2971  20.5938  21.9678  21.9752  24.1748

[...]

          k = 0.3333-0.3062-0.2887 (  2312 PWs)   bands (ev):

[...]

          k =-0.5000 0.0000 0.0000 (  2280 PWs)   bands (ev):

[...]

          k =-0.5000-0.3062-0.2887 (  2312 PWs)   bands (ev):

   -66.2809 -66.2809 -32.9449 -32.9449 -32.3761 -32.3761 -32.2876 -32.2876
    14.9037  14.9037  15.2360  15.2360  16.7977  16.7977  18.7630  18.7630
    18.7930  18.7930  20.6488  20.6488  21.9453  21.9453  24.1649

     the Fermi energy is    20.5920 ev

!    total energy              =    -737.23243254 Ry
     Harris-Foulkes estimate   =    -737.23243255 Ry
     estimated scf accuracy    <          5.4E-09 Ry

     total all-electron energy =     -6062.111067 Ry

     The total energy is the sum of the following terms:

     one-electron contribution =    -306.37908520 Ry
     hartree contribution      =     183.01284617 Ry
     xc contribution           =     -76.91576304 Ry
     ewald contribution        =    -315.96915568 Ry
     one-center paw contrib.   =    -220.98083592 Ry
     smearing contrib. (-TS)   =      -0.00043886 Ry

     convergence has been achieved in   9 iterations

     Forces acting on atoms (cartesian axes, Ry/au):

     atom    1 type  1   force =     0.00000000    0.00000000   -0.03090887
     atom    2 type  1   force =     0.00000000    0.00000000    0.03090887
     atom    3 type  2   force =     0.00000000    0.00000000   -0.02737583
     atom    4 type  2   force =     0.00000000    0.00000000    0.02737583

     Total force =     0.058392     Total SCF correction =     0.000081

     Computing stress (Cartesian axis) and pressure

          total   stress  (Ry/bohr**3)                   (kbar)     P=     1245.39
   0.01037460   0.00000000   0.00000000         1526.16        0.00        0.00
   0.00000000   0.00852495   0.00000000            0.00     1254.06        0.00
   0.00000000   0.00000000   0.00649849            0.00        0.00      955.96

     Writing output data file ./basic.save/

     General routines

     Parallel routines

   This run was terminated on:   1: 7: 4  12Aug2020

   JOB DONE.