     Program PWSCF v.6.5 starts on 16Aug2020 at 21: 0:58

     R & G space division:  proc/nbgrp/npool/nimage =       4
     Reading input from basic.in

     Current dimensions of program PWSCF are:
     Max number of different atomic species (ntypx) = 10
     Max number of k-points (npk) =  40000
     Max angular momentum in pseudopotentials (lmaxx) =  3
     Message from routine volume:
     axis vectors are left-handed

     IMPORTANT: XC functional enforced from input :
     Exchange-correlation= PBE
                           (   1   4   3   4   0   0   0)
     Any further DFT definition will be discarded
     Please, verify this is what you really want

               file Si.pbe-n-kjpaw_psl.1.0.0.UPF: wavefunction(s)  3S 3P renormalized

     Subspace diagonalization in iterative solution of the eigenvalue problem:
     a serial algorithm will be used

     Message from routine setup:
     using ibrav=0 with symmetry is DISCOURAGED, use correct ibrav instead

     bravais-lattice index     =            0
     lattice parameter (alat)  =      10.2625  a.u.
     unit-cell volume          =     270.2116 (a.u.)^3
     number of atoms/cell      =            2
     number of atomic types    =            1
     number of electrons       =         8.00
     number of Kohn-Sham states=            8
     kinetic-energy cutoff     =      50.0000  Ry
     charge density cutoff     =     200.0000  Ry
     convergence threshold     =      1.0E-08
     mixing beta               =       0.7000
     number of iterations used =            8  plain     mixing
     Exchange-correlation= PBE
                           (   1   4   3   4   0   0   0)

     celldm(1)=  10.262536  celldm(2)=   0.000000  celldm(3)=   0.000000
     celldm(4)=   0.000000  celldm(5)=   0.000000  celldm(6)=   0.000000

     crystal axes: (cart. coord. in units of alat)
               a(1) = (   0.500000   0.500000   0.000000 )
               a(2) = (   0.500000   0.000000   0.500000 )
               a(3) = (   0.000000   0.500000   0.500000 )

     reciprocal axes: (cart. coord. in units 2 pi/alat)
               b(1) = (  1.000000  1.000000 -1.000000 )
               b(2) = (  1.000000 -1.000000  1.000000 )
               b(3) = ( -1.000000  1.000000  1.000000 )

     PseudoPot. # 1 for Si read from file:
     ./Si.pbe-n-kjpaw_psl.1.0.0.UPF
     MD5 check sum: c39c59da582df4a0d9f10159256ea34e
     Pseudo is Projector augmented-wave + core cor, Zval =  4.0
     Generated using "atomic" code by A. Dal Corso v.6.3
     Shape of augmentation charge: PSQ
     Using radial grid of 1141 points,  6 beta functions with:
                l(1) =   0
                l(2) =   0
                l(3) =   1
                l(4) =   1
                l(5) =   2
                l(6) =   2
     Q(r) pseudized with 0 coefficients

     atomic species   valence    mass     pseudopotential
        Si             4.00    28.08500     Si( 1.00)

     48 Sym. Ops., with inversion, found (24 have fractional translation)

   Cartesian axes

     site n.     atom                  positions (alat units)
         1           Si  tau(   1) = (   0.0000000   0.0000000   0.0000000  )
         2           Si  tau(   2) = (   0.2500000   0.2500000   0.2500000  )

     number of k points=    20  Marzari-Vanderbilt smearing, width (Ry)=  0.0050
                       cart. coord. in units 2pi/alat
        k(    1) = (   0.0000000   0.0000000   0.0000000), wk =   0.0058309
        k(    2) = (  -0.1428571   0.1428571   0.1428571), wk =   0.0466472
        k(    3) = (  -0.2857143   0.2857143   0.2857143), wk =   0.0466472
        k(    4) = (  -0.4285714   0.4285714   0.4285714), wk =   0.0466472
        k(    5) = (   0.0000000   0.0000000   0.2857143), wk =   0.0349854
        k(    6) = (  -0.1428571   0.1428571   0.4285714), wk =   0.1399417
        k(    7) = (  -0.2857143   0.2857143   0.5714286), wk =   0.1399417
        k(    8) = (   0.5714286  -0.5714286  -0.2857143), wk =   0.1399417
        k(    9) = (   0.4285714  -0.4285714  -0.1428571), wk =   0.1399417
        k(   10) = (   0.2857143  -0.2857143  -0.0000000), wk =   0.0699708
        k(   11) = (   0.0000000   0.0000000   0.5714286), wk =   0.0349854
        k(   12) = (  -0.1428571   0.1428571   0.7142857), wk =   0.1399417
        k(   13) = (   0.7142857  -0.7142857  -0.1428571), wk =   0.1399417
        k(   14) = (   0.5714286  -0.5714286   0.0000000), wk =   0.0699708
        k(   15) = (   0.0000000   0.0000000   0.8571429), wk =   0.0349854
        k(   16) = (   0.8571429  -0.8571429  -0.0000000), wk =   0.0699708
        k(   17) = (   0.0000000   0.2857143   0.5714286), wk =   0.1399417
        k(   18) = (   0.8571429  -0.5714286  -0.2857143), wk =   0.2798834
        k(   19) = (   1.0000000  -0.7142857  -0.1428571), wk =   0.1399417
        k(   20) = (   0.8571429  -0.5714286   0.0000000), wk =   0.1399417

     Initial potential from superposition of free atoms

     starting charge    7.99888, renormalised to    8.00000
     Starting wfcs are    8 randomized atomic wfcs
     Checking if some PAW data can be deallocated...

     Self-consistent Calculation

     iteration #  1     ecut=    50.00 Ry     beta= 0.70
     Davidson diagonalization with overlap
     ethr =  1.00E-02,  avg # of iterations =  3.6

     Threshold (ethr) on eigenvalues was too large:
     Diagonalizing with lowered threshold

     Davidson diagonalization with overlap
     ethr =  7.16E-04,  avg # of iterations =  1.1

     total energy              =     -93.45002032 Ry
     Harris-Foulkes estimate   =     -93.46389946 Ry
     estimated scf accuracy    <       0.05665469 Ry

[...]

     total energy              =     -93.45255564 Ry
     Harris-Foulkes estimate   =     -93.45255564 Ry
     estimated scf accuracy    <       0.00000003 Ry

     iteration #  6     ecut=    50.00 Ry     beta= 0.70
     Davidson diagonalization with overlap
     ethr =  3.50E-10,  avg # of iterations =  1.9

     End of self-consistent calculation

          k = 0.0000 0.0000 0.0000 (  1639 PWs)   bands (ev):

    -5.7580   6.2059   6.2059   6.2059   8.7672   8.7672   8.7672   9.5655

          k =-0.1429 0.1429 0.1429 (  1594 PWs)   bands (ev):

[...]

          k =-0.1429 0.1429 0.7143 (  1621 PWs)   bands (ev):

[...]

          k = 0.8571-0.5714 0.0000 (  1609 PWs)   bands (ev):

    -2.0182  -0.9438   1.9618   3.1069   8.9446  11.0492  11.8583  11.9982

     the Fermi energy is     6.2685 ev

!    total energy              =     -93.45255564 Ry
     Harris-Foulkes estimate   =     -93.45255564 Ry
     estimated scf accuracy    <          5.9E-11 Ry

     total all-electron energy =     -1160.144286 Ry

     The total energy is the sum of the following terms:

     one-electron contribution =       5.73816934 Ry
     hartree contribution      =       1.10231902 Ry
     xc contribution           =     -12.30952476 Ry
     ewald contribution        =     -16.79677837 Ry
     one-center paw contrib.   =     -71.18674801 Ry
     smearing contrib. (-TS)   =       0.00000713 Ry

     convergence has been achieved in   6 iterations

     Forces acting on atoms (cartesian axes, Ry/au):

     atom    1 type  1   force =     0.00000000   -0.00000000   -0.00000000
     atom    2 type  1   force =    -0.00000000    0.00000000    0.00000000

     Total force =     0.000000     Total SCF correction =     0.000000

     Computing stress (Cartesian axis) and pressure

          total   stress  (Ry/bohr**3)                   (kbar)     P=       19.85
   0.00013495  -0.00000000   0.00000000           19.85       -0.00        0.00
   0.00000000   0.00013495   0.00000000            0.00       19.85        0.00
   0.00000000   0.00000000   0.00013495            0.00        0.00       19.85

     Writing output data file ./basic.save/

     General routines

     Parallel routines

   This run was terminated on:  21: 1: 5  16Aug2020

   JOB DONE.