     Program PWSCF v.6.5 starts on 15Aug2020 at 18:21:54

     Reading input from stishovites.in

     Current dimensions of program PWSCF are:
     Max number of different atomic species (ntypx) = 10
     Max number of k-points (npk) =  40000
     Max angular momentum in pseudopotentials (lmaxx) =  3

     IMPORTANT: XC functional enforced from input :
     Exchange-correlation= PBE
                           (   1   4   3   4   0   0   0)
     Any further DFT definition will be discarded
     Please, verify this is what you really want

               file Si.pbe-n-kjpaw_psl.0.1.UPF: wavefunction(s)  3S renormalized

     Subspace diagonalization in iterative solution of the eigenvalue problem:
     a serial algorithm will be used

     Message from routine setup:
     using ibrav=0 with symmetry is DISCOURAGED, use correct ibrav instead

     bravais-lattice index     =            0
     lattice parameter (alat)  =       7.8985  a.u.
     unit-cell volume          =     314.4080 (a.u.)^3
     number of atoms/cell      =            6
     number of atomic types    =            2
     number of electrons       =        32.00
     number of Kohn-Sham states=           20
     kinetic-energy cutoff     =     100.0000  Ry
     charge density cutoff     =     400.0000  Ry
     convergence threshold     =      1.0E-08
     mixing beta               =       0.7000
     number of iterations used =            8  plain     mixing
     Exchange-correlation= PBE
                           (   1   4   3   4   0   0   0)

     celldm(1)=   7.898488  celldm(2)=   0.000000  celldm(3)=   0.000000
     celldm(4)=   0.000000  celldm(5)=   0.000000  celldm(6)=   0.000000

     crystal axes: (cart. coord. in units of alat)
               a(1) = (   1.000000   0.000000   0.000000 )
               a(2) = (   0.000000   1.000000   0.000000 )
               a(3) = (   0.000000   0.000000   0.638060 )

     reciprocal axes: (cart. coord. in units 2 pi/alat)
               b(1) = (  1.000000  0.000000  0.000000 )
               b(2) = (  0.000000  1.000000  0.000000 )
               b(3) = (  0.000000  0.000000  1.567250 )

     PseudoPot. # 1 for Si read from file:
     ./Si.pbe-n-kjpaw_psl.0.1.UPF
     MD5 check sum: 0810ef13ebffcf5dbabd57b297315270
     Pseudo is Projector augmented-wave + core cor, Zval =  4.0
     Generated using "atomic" code by A. Dal Corso v.5.0.2 svn rev. 9415
     Shape of augmentation charge: PSQ
     Using radial grid of 1141 points,  4 beta functions with:
                l(1) =   0
                l(2) =   0
                l(3) =   1
                l(4) =   1
     Q(r) pseudized with 0 coefficients

     PseudoPot. # 2 for O  read from file:
     ./O.pbe-kjpaw.UPF
     MD5 check sum: c7f41d994d4e90c1781f5cd713c45011
     Pseudo is Projector augmented-wave + core cor, Zval =  6.0
     Generated using "atomic" code by A. Dal Corso (espresso distribution)
     Shape of augmentation charge: BESSEL
     Using radial grid of 1095 points,  4 beta functions with:
                l(1) =   0
                l(2) =   0
                l(3) =   1
                l(4) =   1
     Q(r) pseudized with 0 coefficients

     atomic species   valence    mass     pseudopotential
        Si             4.00    28.08500     Si( 1.00)
        O              6.00    15.99900     O ( 1.00)

     16 Sym. Ops., with inversion, found ( 8 have fractional translation)

   Cartesian axes

     site n.     atom                  positions (alat units)
         1           Si  tau(   1) = (   0.0000000   0.0000000   0.0000000  )
         2           Si  tau(   2) = (   0.5000000   0.5000000   0.3190301  )
         3           O   tau(   3) = (   0.3061300   0.3061300   0.0000000  )
         4           O   tau(   4) = (   0.8061300   0.1938700   0.3190301  )
         5           O   tau(   5) = (   0.1938700   0.8061300   0.3190301  )
         6           O   tau(   6) = (   0.6938700   0.6938700   0.0000000  )

     number of k points=    30  Marzari-Vanderbilt smearing, width (Ry)=  0.0050
                       cart. coord. in units 2pi/alat
        k(    1) = (   0.0000000   0.0000000   0.0000000), wk =   0.0138889
        k(    2) = (   0.0000000   0.0000000   0.1741389), wk =   0.0277778
        k(    3) = (   0.0000000   0.0000000   0.3482779), wk =   0.0277778
        k(    4) = (   0.0000000   0.0000000   0.5224168), wk =   0.0277778
        k(    5) = (   0.0000000   0.0000000   0.6965557), wk =   0.0277778
        k(    6) = (   0.0000000   0.2500000   0.0000000), wk =   0.0555556
        k(    7) = (   0.0000000   0.2500000   0.1741389), wk =   0.1111111
        k(    8) = (   0.0000000   0.2500000   0.3482779), wk =   0.1111111
        k(    9) = (   0.0000000   0.2500000   0.5224168), wk =   0.1111111
        k(   10) = (   0.0000000   0.2500000   0.6965557), wk =   0.1111111
        k(   11) = (   0.0000000  -0.5000000   0.0000000), wk =   0.0277778
        k(   12) = (   0.0000000  -0.5000000   0.1741389), wk =   0.0555556
        k(   13) = (   0.0000000  -0.5000000   0.3482779), wk =   0.0555556
        k(   14) = (   0.0000000  -0.5000000   0.5224168), wk =   0.0555556
        k(   15) = (   0.0000000  -0.5000000   0.6965557), wk =   0.0555556
        k(   16) = (   0.2500000   0.2500000   0.0000000), wk =   0.0555556
        k(   17) = (   0.2500000   0.2500000   0.1741389), wk =   0.1111111
        k(   18) = (   0.2500000   0.2500000   0.3482779), wk =   0.1111111
        k(   19) = (   0.2500000   0.2500000   0.5224168), wk =   0.1111111
        k(   20) = (   0.2500000   0.2500000   0.6965557), wk =   0.1111111
        k(   21) = (   0.2500000  -0.5000000   0.0000000), wk =   0.0555556
        k(   22) = (   0.2500000  -0.5000000   0.1741389), wk =   0.1111111
        k(   23) = (   0.2500000  -0.5000000   0.3482779), wk =   0.1111111
        k(   24) = (   0.2500000  -0.5000000   0.5224168), wk =   0.1111111
        k(   25) = (   0.2500000  -0.5000000   0.6965557), wk =   0.1111111
        k(   26) = (  -0.5000000  -0.5000000   0.0000000), wk =   0.0138889
        k(   27) = (  -0.5000000  -0.5000000   0.1741389), wk =   0.0277778
        k(   28) = (  -0.5000000  -0.5000000   0.3482779), wk =   0.0277778
        k(   29) = (  -0.5000000  -0.5000000   0.5224168), wk =   0.0277778
        k(   30) = (  -0.5000000  -0.5000000   0.6965557), wk =   0.0277778

     Initial potential from superposition of free atoms

     starting charge   31.99892, renormalised to   32.00000
     Starting wfcs are   24 randomized atomic wfcs
     Checking if some PAW data can be deallocated...

     Self-consistent Calculation

     iteration #  1     ecut=   100.00 Ry     beta= 0.70
     Davidson diagonalization with overlap
     ethr =  1.00E-02,  avg # of iterations =  2.8

     total energy              =    -260.13401658 Ry
     Harris-Foulkes estimate   =    -260.93476375 Ry
     estimated scf accuracy    <       1.06616404 Ry

[...]

     total energy              =    -260.58984538 Ry
     Harris-Foulkes estimate   =    -260.58984544 Ry
     estimated scf accuracy    <       0.00000016 Ry

     iteration #  8     ecut=   100.00 Ry     beta= 0.70
     Davidson diagonalization with overlap
     ethr =  4.88E-10,  avg # of iterations =  2.0

     End of self-consistent calculation

          k = 0.0000 0.0000 0.0000 (  5281 PWs)   bands (ev):

   -11.9727  -8.3218  -8.3218  -8.0953  -0.2910   4.1427   4.1427   4.3369
     5.1808   5.4702   7.4383   7.4383   8.0534   9.6968   9.6968  10.5752
    16.2009  17.2786  19.1103  19.1103

[...]

          k = 0.2500-0.5000 0.6966 (  5308 PWs)   bands (ev):

[...]

          k =-0.5000-0.5000 0.0000 (  5308 PWs)   bands (ev):

[...]

          k =-0.5000-0.5000 0.6966 (  5268 PWs)   bands (ev):

    -8.9765  -8.9765  -7.7652  -7.7652  -0.1005  -0.1005   2.4960   2.4960
     6.0200   6.0200   6.0488   6.0488   8.8254   8.8254   8.9997   8.9997
    17.8243  17.8243  21.6478  21.6478

     the Fermi energy is    14.5608 ev

!    total energy              =    -260.58984540 Ry
     Harris-Foulkes estimate   =    -260.58984540 Ry
     estimated scf accuracy    <          2.8E-09 Ry

     total all-electron energy =     -1762.324567 Ry

     The total energy is the sum of the following terms:

     one-electron contribution =     -12.16828030 Ry
     hartree contribution      =      31.60898949 Ry
     xc contribution           =     -41.48006958 Ry
     ewald contribution        =    -127.81071283 Ry
     one-center paw contrib.   =    -110.73977219 Ry
     smearing contrib. (-TS)   =       0.00000000 Ry

     convergence has been achieved in   8 iterations

     Forces acting on atoms (cartesian axes, Ry/au):

     atom    1 type  1   force =     0.00000000    0.00000000   -0.00000000
     atom    2 type  1   force =     0.00000000    0.00000000    0.00000000
     atom    3 type  2   force =    -0.00334332   -0.00334332    0.00000000
     atom    4 type  2   force =    -0.00334332    0.00334332   -0.00000000
     atom    5 type  2   force =     0.00334332   -0.00334332    0.00000000
     atom    6 type  2   force =     0.00334332    0.00334332    0.00000000

     Total force =     0.009456     Total SCF correction =     0.000039

     Computing stress (Cartesian axis) and pressure

          total   stress  (Ry/bohr**3)                   (kbar)     P=      103.87
   0.00067108   0.00000000   0.00000000           98.72        0.00        0.00
   0.00000000   0.00067108   0.00000000            0.00       98.72        0.00
   0.00000000   0.00000000   0.00077617            0.00        0.00      114.18

     Writing output data file ./SiO2-stishovite.save/

     General routines

     Parallel routines

   This run was terminated on:  18:22:59  15Aug2020

   JOB DONE.