     Program PWSCF v.6.5 starts on 15Aug2020 at 18:59:37

     R & G space division:  proc/nbgrp/npool/nimage =       2
     Reading input from stishovites+1.in

     Current dimensions of program PWSCF are:
     Max number of different atomic species (ntypx) = 10
     Max number of k-points (npk) =  40000
     Max angular momentum in pseudopotentials (lmaxx) =  3

     IMPORTANT: XC functional enforced from input :
     Exchange-correlation= PBE
                           (   1   4   3   4   0   0   0)
     Any further DFT definition will be discarded
     Please, verify this is what you really want

               file Si.pbe-n-kjpaw_psl.0.1.UPF: wavefunction(s)  3S renormalized

     Subspace diagonalization in iterative solution of the eigenvalue problem:
     a serial algorithm will be used

     Message from routine setup:
     using ibrav=0 with symmetry is DISCOURAGED, use correct ibrav instead

     bravais-lattice index     =            0
     lattice parameter (alat)  =       7.9785  a.u.
     unit-cell volume          =     324.0626 (a.u.)^3
     number of atoms/cell      =            6
     number of atomic types    =            2
     number of electrons       =        32.00
     number of Kohn-Sham states=           20
     kinetic-energy cutoff     =     100.0000  Ry
     charge density cutoff     =     400.0000  Ry
     convergence threshold     =      1.0E-08
     mixing beta               =       0.7000
     number of iterations used =            8  plain     mixing
     Exchange-correlation= PBE
                           (   1   4   3   4   0   0   0)

     celldm(1)=   7.978522  celldm(2)=   0.000000  celldm(3)=   0.000000
     celldm(4)=   0.000000  celldm(5)=   0.000000  celldm(6)=   0.000000

     crystal axes: (cart. coord. in units of alat)
               a(1) = (   1.000000   0.000000   0.000000 )
               a(2) = (   0.000000   1.000000   0.000000 )
               a(3) = (   0.000000   0.000000   0.638060 )

     reciprocal axes: (cart. coord. in units 2 pi/alat)
               b(1) = (  1.000000  0.000000  0.000000 )
               b(2) = (  0.000000  1.000000  0.000000 )
               b(3) = (  0.000000  0.000000  1.567250 )

     PseudoPot. # 1 for Si read from file:
     ./Si.pbe-n-kjpaw_psl.0.1.UPF
     MD5 check sum: 0810ef13ebffcf5dbabd57b297315270
     Pseudo is Projector augmented-wave + core cor, Zval =  4.0
     Generated using "atomic" code by A. Dal Corso v.5.0.2 svn rev. 9415
     Shape of augmentation charge: PSQ
     Using radial grid of 1141 points,  4 beta functions with:
                l(1) =   0
                l(2) =   0
                l(3) =   1
                l(4) =   1
     Q(r) pseudized with 0 coefficients

     PseudoPot. # 2 for O  read from file:
     ./O.pbe-kjpaw.UPF
     MD5 check sum: c7f41d994d4e90c1781f5cd713c45011
     Pseudo is Projector augmented-wave + core cor, Zval =  6.0
     Generated using "atomic" code by A. Dal Corso (espresso distribution)
     Shape of augmentation charge: BESSEL
     Using radial grid of 1095 points,  4 beta functions with:
                l(1) =   0
                l(2) =   0
                l(3) =   1
                l(4) =   1
     Q(r) pseudized with 0 coefficients

     atomic species   valence    mass     pseudopotential
        Si             4.00    28.08500     Si( 1.00)
        O              6.00    15.99900     O ( 1.00)

     16 Sym. Ops., with inversion, found ( 8 have fractional translation)

   Cartesian axes

     site n.     atom                  positions (alat units)
         1           Si  tau(   1) = (   0.0000000   0.0000000   0.0000000  )
         2           Si  tau(   2) = (   0.5000000   0.5000000   0.3190301  )
         3           O   tau(   3) = (   0.3061300   0.3061300   0.0000000  )
         4           O   tau(   4) = (   0.8061300   0.1938700   0.3190301  )
         5           O   tau(   5) = (   0.1938700   0.8061300   0.3190301  )
         6           O   tau(   6) = (   0.6938700   0.6938700   0.0000000  )

     number of k points=    30  Marzari-Vanderbilt smearing, width (Ry)=  0.0050
                       cart. coord. in units 2pi/alat
        k(    1) = (   0.0000000   0.0000000   0.0000000), wk =   0.0138889
        k(    2) = (   0.0000000   0.0000000   0.1741389), wk =   0.0277778
        k(    3) = (   0.0000000   0.0000000   0.3482779), wk =   0.0277778
        k(    4) = (   0.0000000   0.0000000   0.5224168), wk =   0.0277778
        k(    5) = (   0.0000000   0.0000000   0.6965557), wk =   0.0277778
        k(    6) = (   0.0000000   0.2500000   0.0000000), wk =   0.0555556
        k(    7) = (   0.0000000   0.2500000   0.1741389), wk =   0.1111111
        k(    8) = (   0.0000000   0.2500000   0.3482779), wk =   0.1111111
        k(    9) = (   0.0000000   0.2500000   0.5224168), wk =   0.1111111
        k(   10) = (   0.0000000   0.2500000   0.6965557), wk =   0.1111111
        k(   11) = (   0.0000000  -0.5000000   0.0000000), wk =   0.0277778
        k(   12) = (   0.0000000  -0.5000000   0.1741389), wk =   0.0555556
        k(   13) = (   0.0000000  -0.5000000   0.3482779), wk =   0.0555556
        k(   14) = (   0.0000000  -0.5000000   0.5224168), wk =   0.0555556
        k(   15) = (   0.0000000  -0.5000000   0.6965557), wk =   0.0555556
        k(   16) = (   0.2500000   0.2500000   0.0000000), wk =   0.0555556
        k(   17) = (   0.2500000   0.2500000   0.1741389), wk =   0.1111111
        k(   18) = (   0.2500000   0.2500000   0.3482779), wk =   0.1111111
        k(   19) = (   0.2500000   0.2500000   0.5224168), wk =   0.1111111
        k(   20) = (   0.2500000   0.2500000   0.6965557), wk =   0.1111111
        k(   21) = (   0.2500000  -0.5000000   0.0000000), wk =   0.0555556
        k(   22) = (   0.2500000  -0.5000000   0.1741389), wk =   0.1111111
        k(   23) = (   0.2500000  -0.5000000   0.3482779), wk =   0.1111111
        k(   24) = (   0.2500000  -0.5000000   0.5224168), wk =   0.1111111
        k(   25) = (   0.2500000  -0.5000000   0.6965557), wk =   0.1111111
        k(   26) = (  -0.5000000  -0.5000000   0.0000000), wk =   0.0138889
        k(   27) = (  -0.5000000  -0.5000000   0.1741389), wk =   0.0277778
        k(   28) = (  -0.5000000  -0.5000000   0.3482779), wk =   0.0277778
        k(   29) = (  -0.5000000  -0.5000000   0.5224168), wk =   0.0277778
        k(   30) = (  -0.5000000  -0.5000000   0.6965557), wk =   0.0277778

     Initial potential from superposition of free atoms

     starting charge   31.99892, renormalised to   32.00000
     Starting wfcs are   24 randomized atomic wfcs
     Checking if some PAW data can be deallocated...

     Self-consistent Calculation

     iteration #  1     ecut=   100.00 Ry     beta= 0.70
     Davidson diagonalization with overlap
     ethr =  1.00E-02,  avg # of iterations =  2.7

     total energy              =    -260.13273911 Ry
     Harris-Foulkes estimate   =    -260.93340273 Ry
     estimated scf accuracy    <       1.06519318 Ry

[...]

     total energy              =    -260.59337918 Ry
     Harris-Foulkes estimate   =    -260.59337923 Ry
     estimated scf accuracy    <       0.00000016 Ry

     iteration #  8     ecut=   100.00 Ry     beta= 0.70
     Davidson diagonalization with overlap
     ethr =  5.10E-10,  avg # of iterations =  2.0

     End of self-consistent calculation

          k = 0.0000 0.0000 0.0000 (  5433 PWs)   bands (ev):

   -12.1380  -8.6419  -8.6419  -8.4234  -0.5954   3.8281   3.8281   4.1073
     4.8261   5.1357   7.0432   7.0432   7.6024   9.2331   9.2331  10.0944
    15.1846  16.6712  18.3702  18.3702

[...]

          k = 0.2500-0.5000 0.6966 (  5454 PWs)   bands (ev):

[...]

          k =-0.5000-0.5000 0.0000 (  5452 PWs)   bands (ev):

[...]

          k =-0.5000-0.5000 0.6966 (  5448 PWs)   bands (ev):

    -9.2706  -9.2706  -8.1093  -8.1093  -0.3688  -0.3688   2.2577   2.2577
     5.6299   5.6299   5.6638   5.6638   8.3991   8.3991   8.5838   8.5838
    16.9673  16.9673  20.9399  20.9399

     the Fermi energy is    13.8835 ev

!    total energy              =    -260.59337920 Ry
     Harris-Foulkes estimate   =    -260.59337919 Ry
     estimated scf accuracy    <          1.7E-09 Ry

     total all-electron energy =     -1762.328100 Ry

     The total energy is the sum of the following terms:

     one-electron contribution =     -14.03851211 Ry
     hartree contribution      =      32.04649425 Ry
     xc contribution           =     -41.33467071 Ry
     ewald contribution        =    -126.52862551 Ry
     one-center paw contrib.   =    -110.73806511 Ry
     smearing contrib. (-TS)   =       0.00000000 Ry

     convergence has been achieved in   8 iterations

     Forces acting on atoms (cartesian axes, Ry/au):

     atom    1 type  1   force =     0.00000000    0.00000000   -0.00000000
     atom    2 type  1   force =     0.00000000    0.00000000    0.00000000
     atom    3 type  2   force =     0.00217797    0.00217797   -0.00000000
     atom    4 type  2   force =     0.00217797   -0.00217797   -0.00000000
     atom    5 type  2   force =    -0.00217797    0.00217797    0.00000000
     atom    6 type  2   force =    -0.00217797   -0.00217797    0.00000000

     Total force =     0.006160     Total SCF correction =     0.000030

     Computing stress (Cartesian axis) and pressure

          total   stress  (Ry/bohr**3)                   (kbar)     P=        6.16
   0.00005516   0.00000000   0.00000000            8.11        0.00        0.00
   0.00000000   0.00005516   0.00000000            0.00        8.11        0.00
   0.00000000   0.00000000   0.00001532            0.00        0.00        2.25

     Writing output data file ./SiO2-stishovite.save/

     General routines

     Parallel routines

   This run was terminated on:  19: 1:10  15Aug2020

   JOB DONE.