     Program PWSCF v.6.5 starts on 15Aug2020 at 19: 1:37

     R & G space division:  proc/nbgrp/npool/nimage =       2
     Reading input from stishovites+3.in

     Current dimensions of program PWSCF are:
     Max number of different atomic species (ntypx) = 10
     Max number of k-points (npk) =  40000
     Max angular momentum in pseudopotentials (lmaxx) =  3

     IMPORTANT: XC functional enforced from input :
     Exchange-correlation= PBE
                           (   1   4   3   4   0   0   0)
     Any further DFT definition will be discarded
     Please, verify this is what you really want

               file Si.pbe-n-kjpaw_psl.0.1.UPF: wavefunction(s)  3S renormalized

     Subspace diagonalization in iterative solution of the eigenvalue problem:
     a serial algorithm will be used

     Message from routine setup:
     using ibrav=0 with symmetry is DISCOURAGED, use correct ibrav instead

     bravais-lattice index     =            0
     lattice parameter (alat)  =       8.1385  a.u.
     unit-cell volume          =     343.9525 (a.u.)^3
     number of atoms/cell      =            6
     number of atomic types    =            2
     number of electrons       =        32.00
     number of Kohn-Sham states=           20
     kinetic-energy cutoff     =     100.0000  Ry
     charge density cutoff     =     400.0000  Ry
     convergence threshold     =      1.0E-08
     mixing beta               =       0.7000
     number of iterations used =            8  plain     mixing
     Exchange-correlation= PBE
                           (   1   4   3   4   0   0   0)

     celldm(1)=   8.138523  celldm(2)=   0.000000  celldm(3)=   0.000000
     celldm(4)=   0.000000  celldm(5)=   0.000000  celldm(6)=   0.000000

     crystal axes: (cart. coord. in units of alat)
               a(1) = (   1.000000   0.000000   0.000000 )
               a(2) = (   0.000000   1.000000   0.000000 )
               a(3) = (   0.000000   0.000000   0.638060 )

     reciprocal axes: (cart. coord. in units 2 pi/alat)
               b(1) = (  1.000000  0.000000  0.000000 )
               b(2) = (  0.000000  1.000000  0.000000 )
               b(3) = (  0.000000  0.000000  1.567250 )

     PseudoPot. # 1 for Si read from file:
     ./Si.pbe-n-kjpaw_psl.0.1.UPF
     MD5 check sum: 0810ef13ebffcf5dbabd57b297315270
     Pseudo is Projector augmented-wave + core cor, Zval =  4.0
     Generated using "atomic" code by A. Dal Corso v.5.0.2 svn rev. 9415
     Shape of augmentation charge: PSQ
     Using radial grid of 1141 points,  4 beta functions with:
                l(1) =   0
                l(2) =   0
                l(3) =   1
                l(4) =   1
     Q(r) pseudized with 0 coefficients

     PseudoPot. # 2 for O  read from file:
     ./O.pbe-kjpaw.UPF
     MD5 check sum: c7f41d994d4e90c1781f5cd713c45011
     Pseudo is Projector augmented-wave + core cor, Zval =  6.0
     Generated using "atomic" code by A. Dal Corso (espresso distribution)
     Shape of augmentation charge: BESSEL
     Using radial grid of 1095 points,  4 beta functions with:
                l(1) =   0
                l(2) =   0
                l(3) =   1
                l(4) =   1
     Q(r) pseudized with 0 coefficients

     atomic species   valence    mass     pseudopotential
        Si             4.00    28.08500     Si( 1.00)
        O              6.00    15.99900     O ( 1.00)

     16 Sym. Ops., with inversion, found ( 8 have fractional translation)

   Cartesian axes

     site n.     atom                  positions (alat units)
         1           Si  tau(   1) = (   0.0000000   0.0000000   0.0000000  )
         2           Si  tau(   2) = (   0.5000000   0.5000000   0.3190301  )
         3           O   tau(   3) = (   0.3061300   0.3061300   0.0000000  )
         4           O   tau(   4) = (   0.8061300   0.1938700   0.3190301  )
         5           O   tau(   5) = (   0.1938700   0.8061300   0.3190301  )
         6           O   tau(   6) = (   0.6938700   0.6938700   0.0000000  )

     number of k points=    30  Marzari-Vanderbilt smearing, width (Ry)=  0.0050
                       cart. coord. in units 2pi/alat
        k(    1) = (   0.0000000   0.0000000   0.0000000), wk =   0.0138889
        k(    2) = (   0.0000000   0.0000000   0.1741389), wk =   0.0277778
        k(    3) = (   0.0000000   0.0000000   0.3482779), wk =   0.0277778
        k(    4) = (   0.0000000   0.0000000   0.5224168), wk =   0.0277778
        k(    5) = (   0.0000000   0.0000000   0.6965557), wk =   0.0277778
        k(    6) = (   0.0000000   0.2500000   0.0000000), wk =   0.0555556
        k(    7) = (   0.0000000   0.2500000   0.1741389), wk =   0.1111111
        k(    8) = (   0.0000000   0.2500000   0.3482779), wk =   0.1111111
        k(    9) = (   0.0000000   0.2500000   0.5224168), wk =   0.1111111
        k(   10) = (   0.0000000   0.2500000   0.6965557), wk =   0.1111111
        k(   11) = (   0.0000000  -0.5000000   0.0000000), wk =   0.0277778
        k(   12) = (   0.0000000  -0.5000000   0.1741389), wk =   0.0555556
        k(   13) = (   0.0000000  -0.5000000   0.3482779), wk =   0.0555556
        k(   14) = (   0.0000000  -0.5000000   0.5224168), wk =   0.0555556
        k(   15) = (   0.0000000  -0.5000000   0.6965557), wk =   0.0555556
        k(   16) = (   0.2500000   0.2500000   0.0000000), wk =   0.0555556
        k(   17) = (   0.2500000   0.2500000   0.1741389), wk =   0.1111111
        k(   18) = (   0.2500000   0.2500000   0.3482779), wk =   0.1111111
        k(   19) = (   0.2500000   0.2500000   0.5224168), wk =   0.1111111
        k(   20) = (   0.2500000   0.2500000   0.6965557), wk =   0.1111111
        k(   21) = (   0.2500000  -0.5000000   0.0000000), wk =   0.0555556
        k(   22) = (   0.2500000  -0.5000000   0.1741389), wk =   0.1111111
        k(   23) = (   0.2500000  -0.5000000   0.3482779), wk =   0.1111111
        k(   24) = (   0.2500000  -0.5000000   0.5224168), wk =   0.1111111
        k(   25) = (   0.2500000  -0.5000000   0.6965557), wk =   0.1111111
        k(   26) = (  -0.5000000  -0.5000000   0.0000000), wk =   0.0138889
        k(   27) = (  -0.5000000  -0.5000000   0.1741389), wk =   0.0277778
        k(   28) = (  -0.5000000  -0.5000000   0.3482779), wk =   0.0277778
        k(   29) = (  -0.5000000  -0.5000000   0.5224168), wk =   0.0277778
        k(   30) = (  -0.5000000  -0.5000000   0.6965557), wk =   0.0277778

     Initial potential from superposition of free atoms

     starting charge   31.99892, renormalised to   32.00000
     Starting wfcs are   24 randomized atomic wfcs
     Checking if some PAW data can be deallocated...

     Self-consistent Calculation

     iteration #  1     ecut=   100.00 Ry     beta= 0.70
     Davidson diagonalization with overlap
     ethr =  1.00E-02,  avg # of iterations =  2.5

     total energy              =    -260.11056023 Ry
     Harris-Foulkes estimate   =    -260.91610360 Ry
     estimated scf accuracy    <       1.06991505 Ry

[...]

     total energy              =    -260.58287950 Ry
     Harris-Foulkes estimate   =    -260.58287954 Ry
     estimated scf accuracy    <       0.00000015 Ry

     iteration #  8     ecut=   100.00 Ry     beta= 0.70
     Davidson diagonalization with overlap
     ethr =  4.72E-10,  avg # of iterations =  2.0

     End of self-consistent calculation

          k = 0.0000 0.0000 0.0000 (  5797 PWs)   bands (ev):

   -12.4531  -9.2504  -9.2504  -9.0477  -1.1687   3.2342   3.2342   3.6676
     4.1569   4.4987   6.2943   6.2943   6.7515   8.3562   8.3562   9.1836
    13.2706  15.4854  16.9597  16.9597

[...]

          k = 0.2500-0.5000 0.6966 (  5824 PWs)   bands (ev):

[...]

          k =-0.5000-0.5000 0.0000 (  5804 PWs)   bands (ev):

[...]

          k =-0.5000-0.5000 0.6966 (  5832 PWs)   bands (ev):

    -9.8289  -9.8289  -8.7638  -8.7638  -0.8759  -0.8759   1.8050   1.8050
     4.8906   4.8906   4.9374   4.9374   7.5927   7.5927   7.7942   7.7942
    15.3444  15.3444  19.5607  19.5607

     the Fermi energy is    12.5902 ev

!    total energy              =    -260.58287951 Ry
     Harris-Foulkes estimate   =    -260.58287951 Ry
     estimated scf accuracy    <          2.9E-09 Ry

     total all-electron energy =     -1762.317601 Ry

     The total energy is the sum of the following terms:

     one-electron contribution =     -17.66089226 Ry
     hartree contribution      =      32.91430809 Ry
     xc contribution           =     -41.05808149 Ry
     ewald contribution        =    -124.04110608 Ry
     one-center paw contrib.   =    -110.73710777 Ry
     smearing contrib. (-TS)   =      -0.00000000 Ry

     convergence has been achieved in   8 iterations

     Forces acting on atoms (cartesian axes, Ry/au):

     atom    1 type  1   force =     0.00000000    0.00000000   -0.00000000
     atom    2 type  1   force =     0.00000000    0.00000000    0.00000000
     atom    3 type  2   force =     0.01193226    0.01193226   -0.00000000
     atom    4 type  2   force =     0.01193226   -0.01193226    0.00000000
     atom    5 type  2   force =    -0.01193226    0.01193226    0.00000000
     atom    6 type  2   force =    -0.01193226   -0.01193226    0.00000000

     Total force =     0.033750     Total SCF correction =     0.000042

     Computing stress (Cartesian axis) and pressure

          total   stress  (Ry/bohr**3)                   (kbar)     P=     -153.08
  -0.00094536   0.00000000   0.00000000         -139.07        0.00        0.00
   0.00000000  -0.00094536   0.00000000            0.00     -139.07        0.00
   0.00000000   0.00000000  -0.00123115            0.00        0.00     -181.11

     Writing output data file ./SiO2-stishovite.save/

     General routines

     Parallel routines

   This run was terminated on:  19: 2:12  15Aug2020

   JOB DONE.