     Program PWSCF v.6.5 starts on 14Aug2020 at 22:51:26

     R & G space division:  proc/nbgrp/npool/nimage =       2
     Reading input from PbOrelax.in

     Current dimensions of program PWSCF are:
     Max number of different atomic species (ntypx) = 10
     Max number of k-points (npk) =  40000
     Max angular momentum in pseudopotentials (lmaxx) =  3

     IMPORTANT: XC functional enforced from input :
     Exchange-correlation= PBE
                           (   1   4   3   4   0   0   0)
     Any further DFT definition will be discarded
     Please, verify this is what you really want

               file O.pbe-n-kjpaw_psl.0.1.UPF: wavefunction(s)  2P renormalized
               file Pb.pbe-dn-kjpaw_psl.0.2.2.UPF: wavefunction(s)  6S renormalized

     Subspace diagonalization in iterative solution of the eigenvalue problem:
     a serial algorithm will be used

     Message from routine setup:
     using ibrav=0 with symmetry is DISCOURAGED, use correct ibrav instead

     bravais-lattice index     =            0
     lattice parameter (alat)  =       7.5105  a.u.
     unit-cell volume          =     535.3237 (a.u.)^3
     number of atoms/cell      =            4
     number of atomic types    =            2
     number of electrons       =        40.00
     number of Kohn-Sham states=           24
     kinetic-energy cutoff     =      60.0000  Ry
     charge density cutoff     =     240.0000  Ry
     convergence threshold     =      1.0E-08
     mixing beta               =       0.7000
     number of iterations used =            8  plain     mixing
     Exchange-correlation= PBE
                           (   1   4   3   4   0   0   0)
     nstep                     =           50

     celldm(1)=   7.510528  celldm(2)=   0.000000  celldm(3)=   0.000000
     celldm(4)=   0.000000  celldm(5)=   0.000000  celldm(6)=   0.000000

     crystal axes: (cart. coord. in units of alat)
               a(1) = (   1.000000   0.000000   0.000000 )
               a(2) = (   0.000000   1.000000   0.000000 )
               a(3) = (   0.000000   0.000000   1.263587 )

     reciprocal axes: (cart. coord. in units 2 pi/alat)
               b(1) = (  1.000000  0.000000  0.000000 )
               b(2) = (  0.000000  1.000000  0.000000 )
               b(3) = (  0.000000  0.000000  0.791398 )

     PseudoPot. # 1 for O  read from file:
     ./O.pbe-n-kjpaw_psl.0.1.UPF
     MD5 check sum: 833c495a5d0f9b75bf046115549bffff
     Pseudo is Projector augmented-wave + core cor, Zval =  6.0
     Generated using "atomic" code by A. Dal Corso v.6.3
     Shape of augmentation charge: BESSEL
     Using radial grid of 1095 points,  4 beta functions with:
                l(1) =   0
                l(2) =   0
                l(3) =   1
                l(4) =   1
     Q(r) pseudized with 0 coefficients

     PseudoPot. # 2 for Pb read from file:
     ./Pb.pbe-dn-kjpaw_psl.0.2.2.UPF
     MD5 check sum: f59221ed870a8203cfe6076f2d6248d0
     Pseudo is Projector augmented-wave + core cor, Zval = 14.0
     Generated using "atomic" code by A. Dal Corso v.5.0.2 svn rev. 9415
     Shape of augmentation charge: PSQ
     Using radial grid of 1281 points,  6 beta functions with:
                l(1) =   0
                l(2) =   0
                l(3) =   1
                l(4) =   1
                l(5) =   2
                l(6) =   2
     Q(r) pseudized with 0 coefficients

     atomic species   valence    mass     pseudopotential
        O              6.00    15.99900     O ( 1.00)
        Pb            14.00   207.20000     Pb( 1.00)

     16 Sym. Ops., with inversion, found ( 8 have fractional translation)

   Cartesian axes

     site n.     atom                  positions (alat units)
         1           Pb  tau(   1) = (   0.0000000   0.5000000   0.2970693  )
         2           Pb  tau(   2) = (   0.5000000   0.0000000   0.9665177  )
         3           O   tau(   3) = (   0.0000000   0.0000000   0.0000000  )
         4           O   tau(   4) = (   0.5000000   0.5000000   0.0000000  )

     number of k points=    18  Marzari-Vanderbilt smearing, width (Ry)=  0.0050
                       cart. coord. in units 2pi/alat
        k(    1) = (   0.0000000   0.0000000   0.0000000), wk =   0.0160000
        k(    2) = (   0.0000000   0.0000000   0.1582796), wk =   0.0320000
        k(    3) = (   0.0000000   0.0000000   0.3165591), wk =   0.0320000
        k(    4) = (   0.0000000   0.2000000   0.0000000), wk =   0.0640000
        k(    5) = (   0.0000000   0.2000000   0.1582796), wk =   0.1280000
        k(    6) = (   0.0000000   0.2000000   0.3165591), wk =   0.1280000
        k(    7) = (   0.0000000   0.4000000   0.0000000), wk =   0.0640000
        k(    8) = (   0.0000000   0.4000000   0.1582796), wk =   0.1280000
        k(    9) = (   0.0000000   0.4000000   0.3165591), wk =   0.1280000
        k(   10) = (   0.2000000   0.2000000   0.0000000), wk =   0.0640000
        k(   11) = (   0.2000000   0.2000000   0.1582796), wk =   0.1280000
        k(   12) = (   0.2000000   0.2000000   0.3165591), wk =   0.1280000
        k(   13) = (   0.2000000   0.4000000   0.0000000), wk =   0.1280000
        k(   14) = (   0.2000000   0.4000000   0.1582796), wk =   0.2560000
        k(   15) = (   0.2000000   0.4000000   0.3165591), wk =   0.2560000
        k(   16) = (   0.4000000   0.4000000   0.0000000), wk =   0.0640000
        k(   17) = (   0.4000000   0.4000000   0.1582796), wk =   0.1280000
        k(   18) = (   0.4000000   0.4000000   0.3165591), wk =   0.1280000

     Check: negative core charge=   -0.000006

     Initial potential from superposition of free atoms

     starting charge   39.99529, renormalised to   40.00000
     Starting wfcs are   26 randomized atomic wfcs
     Checking if some PAW data can be deallocated...

     Self-consistent Calculation

     iteration #  1     ecut=    60.00 Ry     beta= 0.70
     Davidson diagonalization with overlap
     ethr =  1.00E-02,  avg # of iterations =  2.2

     total energy              =   -1823.58642319 Ry
     Harris-Foulkes estimate   =   -1824.76331611 Ry
     estimated scf accuracy    <       1.44075026 Ry

[...]

     End of self-consistent calculation

          k = 0.0000 0.0000 0.0000 (  4219 PWs)   bands (ev):

    -9.6419  -9.0967  -7.2335  -7.2335  -7.1709  -7.1528  -7.0726  -7.0014
    -7.0014  -6.9996  -6.9711  -5.6089   1.5976   2.1611   4.4971   4.4971
     7.0968   7.1284   7.1284   8.8173  11.1748  14.2575  14.5107  14.5107

[...]

     the Fermi energy is     9.4547 ev

!    total energy              =   -1824.46823348 Ry
     Harris-Foulkes estimate   =   -1824.46823348 Ry
     estimated scf accuracy    <          7.0E-10 Ry

     total all-electron energy =    -83829.218948 Ry

     The total energy is the sum of the following terms:

     one-electron contribution =    -103.75978598 Ry
     hartree contribution      =      85.04922573 Ry
     xc contribution           =    -103.73073061 Ry
     ewald contribution        =    -226.07136237 Ry
     one-center paw contrib.   =   -1475.95558025 Ry
     smearing contrib. (-TS)   =       0.00000000 Ry

     convergence has been achieved in  10 iterations

     Forces acting on atoms (cartesian axes, Ry/au):

     atom    1 type  2   force =     0.00000000    0.00000000    0.02155912
     atom    2 type  2   force =     0.00000000    0.00000000   -0.02155912
     atom    3 type  1   force =     0.00000000    0.00000000   -0.00000000
     atom    4 type  1   force =     0.00000000    0.00000000    0.00000000

     Total force =     0.030489     Total SCF correction =     0.000059

     Computing stress (Cartesian axis) and pressure

          total   stress  (Ry/bohr**3)                   (kbar)     P=       52.52
   0.00038354   0.00000000   0.00000000           56.42        0.00        0.00
   0.00000000   0.00038354   0.00000000            0.00       56.42        0.00
   0.00000000   0.00000000   0.00030407            0.00        0.00       44.73

     BFGS Geometry Optimization

     number of scf cycles    =   1
     number of bfgs steps    =   0

     energy   new            =   -1824.4682334764 Ry

     new trust radius        =       0.0215591157 bohr
     new conv_thr            =       0.0000000100 Ry

ATOMIC_POSITIONS (crystal)
Pb            0.0000000000        0.5000000000        0.2373717230
Pb            0.5000000000        0.0000000000        0.7626282770
O             0.0000000000        0.0000000000       -0.0000000000
O             0.5000000000        0.5000000000        0.0000000000

     Writing output data file ./basic.save/
     NEW-OLD atomic charge density approx. for the potential

[...]

     energy   old            =   -1824.4682334764 Ry
     energy   new            =   -1824.4689980202 Ry

     CASE: energy  _new < energy  _old

[...]

     Total force =     0.007906     Total SCF correction =     0.000002

[...]

     number of scf cycles    =   3
     number of bfgs steps    =   2

     energy   old            =   -1824.4689980202 Ry
     energy   new            =   -1824.4694602439 Ry

     CASE: energy  _new < energy  _old

     new trust radius        =       0.0159736041 bohr
     new conv_thr            =       0.0000000005 Ry

ATOMIC_POSITIONS (crystal)
Pb            0.0000000000        0.5000000000        0.2415537857
Pb            0.5000000000        0.0000000000        0.7584462143
O             0.0000000000        0.0000000000        0.0000000000
O             0.5000000000        0.5000000000        0.0000000000

     Writing output data file ./basic.save/
     NEW-OLD atomic charge density approx. for the potential

     Check: negative core charge=   -0.000006

     Self-consistent Calculation

[...]

     Threshold (ethr) on eigenvalues was too large:
     Diagonalizing with lowered threshold

     Davidson diagonalization with overlap
     ethr =  7.61E-08,  avg # of iterations =  1.7

[...]

     total energy              =   -1824.46954983 Ry
     Harris-Foulkes estimate   =   -1824.46954984 Ry
     estimated scf accuracy    <          1.6E-09 Ry

     iteration #  7     ecut=    60.00 Ry     beta= 0.70
     Davidson diagonalization with overlap
     ethr =  4.01E-12,  avg # of iterations =  5.0

     End of self-consistent calculation

[...]

          k = 0.4000 0.4000 0.3166 (  4186 PWs)   bands (ev):

    -9.1750  -9.1287  -7.1694  -7.1381  -7.1150  -7.0865  -7.0800  -7.0744
    -7.0619  -7.0537  -6.2854  -6.1196   0.7270   1.0175   4.5290   5.1362
     6.6725   7.0136   7.4626   7.8279  11.8366  11.8954  13.1464  14.3043

     the Fermi energy is     9.4528 ev

!    total energy              =   -1824.46954984 Ry
     Harris-Foulkes estimate   =   -1824.46954984 Ry
     estimated scf accuracy    <          1.5E-10 Ry

     total all-electron energy =    -83829.220265 Ry

     The total energy is the sum of the following terms:

     one-electron contribution =    -100.42261114 Ry
     hartree contribution      =      83.36724157 Ry
     xc contribution           =    -103.68775293 Ry
     ewald contribution        =    -227.77324861 Ry
     one-center paw contrib.   =   -1475.95317873 Ry
     smearing contrib. (-TS)   =       0.00000000 Ry

     convergence has been achieved in   7 iterations

     Forces acting on atoms (cartesian axes, Ry/au):

     atom    1 type  2   force =     0.00000000    0.00000000    0.00003249
     atom    2 type  2   force =     0.00000000    0.00000000   -0.00003249
     atom    3 type  1   force =     0.00000000    0.00000000   -0.00000000
     atom    4 type  1   force =     0.00000000    0.00000000    0.00000000

     Total force =     0.000046     Total SCF correction =     0.000016
     SCF correction compared to forces is large: reduce conv_thr to get better values

     Computing stress (Cartesian axis) and pressure

          total   stress  (Ry/bohr**3)                   (kbar)     P=       34.54
   0.00027757   0.00000000   0.00000000           40.83        0.00        0.00
   0.00000000   0.00027757   0.00000000            0.00       40.83        0.00
   0.00000000   0.00000000   0.00014919            0.00        0.00       21.95

     bfgs converged in   4 scf cycles and   3 bfgs steps
     (criteria: energy <  1.0E-04 Ry, force <  1.0E-03 Ry/Bohr)

     End of BFGS Geometry Optimization

     Final energy   =   -1824.4695498415 Ry
Begin final coordinates

ATOMIC_POSITIONS (crystal)
Pb            0.0000000000        0.5000000000        0.2415537857
Pb            0.5000000000        0.0000000000        0.7584462143
O             0.0000000000        0.0000000000        0.0000000000
O             0.5000000000        0.5000000000        0.0000000000
End final coordinates

     Writing output data file ./basic.save/

     General routines

     Parallel routines

   This run was terminated on:  22:53:48  14Aug2020

   JOB DONE.