     Program PWSCF v.6.5 starts on 15Aug2020 at  0:14:22

     R & G space division:  proc/nbgrp/npool/nimage =       2
     Reading input from PbOvcrelax.in

     Current dimensions of program PWSCF are:
     Max number of different atomic species (ntypx) = 10
     Max number of k-points (npk) =  40000
     Max angular momentum in pseudopotentials (lmaxx) =  3

     IMPORTANT: XC functional enforced from input :
     Exchange-correlation= PBE
                           (   1   4   3   4   0   0   0)
     Any further DFT definition will be discarded
     Please, verify this is what you really want

               file O.pbe-n-kjpaw_psl.0.1.UPF: wavefunction(s)  2P renormalized
               file Pb.pbe-dn-kjpaw_psl.0.2.2.UPF: wavefunction(s)  6S renormalized

     Subspace diagonalization in iterative solution of the eigenvalue problem:
     a serial algorithm will be used

     Message from routine setup:
     using ibrav=0 with symmetry is DISCOURAGED, use correct ibrav instead

     bravais-lattice index     =            0
     lattice parameter (alat)  =       7.5105  a.u.
     unit-cell volume          =     535.3237 (a.u.)^3
     number of atoms/cell      =            4
     number of atomic types    =            2
     number of electrons       =        40.00
     number of Kohn-Sham states=           24
     kinetic-energy cutoff     =      60.0000  Ry
     charge density cutoff     =     240.0000  Ry
     convergence threshold     =      1.0E-08
     mixing beta               =       0.7000
     number of iterations used =            8  plain     mixing
     Exchange-correlation= PBE
                           (   1   4   3   4   0   0   0)
     nstep                     =           50

     celldm(1)=   7.510528  celldm(2)=   0.000000  celldm(3)=   0.000000
     celldm(4)=   0.000000  celldm(5)=   0.000000  celldm(6)=   0.000000

     crystal axes: (cart. coord. in units of alat)
               a(1) = (   1.000000   0.000000   0.000000 )
               a(2) = (   0.000000   1.000000   0.000000 )
               a(3) = (   0.000000   0.000000   1.263587 )

     reciprocal axes: (cart. coord. in units 2 pi/alat)
               b(1) = (  1.000000  0.000000  0.000000 )
               b(2) = (  0.000000  1.000000  0.000000 )
               b(3) = (  0.000000  0.000000  0.791398 )

     PseudoPot. # 1 for O  read from file:
     ./O.pbe-n-kjpaw_psl.0.1.UPF
     MD5 check sum: 833c495a5d0f9b75bf046115549bffff
     Pseudo is Projector augmented-wave + core cor, Zval =  6.0
     Generated using "atomic" code by A. Dal Corso v.6.3
     Shape of augmentation charge: BESSEL
     Using radial grid of 1095 points,  4 beta functions with:
                l(1) =   0
                l(2) =   0
                l(3) =   1
                l(4) =   1
     Q(r) pseudized with 0 coefficients

     PseudoPot. # 2 for Pb read from file:
     ./Pb.pbe-dn-kjpaw_psl.0.2.2.UPF
     MD5 check sum: f59221ed870a8203cfe6076f2d6248d0
     Pseudo is Projector augmented-wave + core cor, Zval = 14.0
     Generated using "atomic" code by A. Dal Corso v.5.0.2 svn rev. 9415
     Shape of augmentation charge: PSQ
     Using radial grid of 1281 points,  6 beta functions with:
                l(1) =   0
                l(2) =   0
                l(3) =   1
                l(4) =   1
                l(5) =   2
                l(6) =   2
     Q(r) pseudized with 0 coefficients

     atomic species   valence    mass     pseudopotential
        O              6.00    15.99900     O ( 1.00)
        Pb            14.00   207.20000     Pb( 1.00)

     16 Sym. Ops., with inversion, found ( 8 have fractional translation)

   Cartesian axes

     site n.     atom                  positions (alat units)
         1           Pb  tau(   1) = (   0.0000000   0.5000000   0.3052211  )
         2           Pb  tau(   2) = (   0.5000000   0.0000000   0.9583659  )
         3           O   tau(   3) = (   0.0000000   0.0000000   0.0000000  )
         4           O   tau(   4) = (   0.5000000   0.5000000   0.0000000  )

     number of k points=    18  Marzari-Vanderbilt smearing, width (Ry)=  0.0050
                       cart. coord. in units 2pi/alat
        k(    1) = (   0.0000000   0.0000000   0.0000000), wk =   0.0160000
        k(    2) = (   0.0000000   0.0000000   0.1582796), wk =   0.0320000
        k(    3) = (   0.0000000   0.0000000   0.3165591), wk =   0.0320000
        k(    4) = (   0.0000000   0.2000000   0.0000000), wk =   0.0640000
        k(    5) = (   0.0000000   0.2000000   0.1582796), wk =   0.1280000
        k(    6) = (   0.0000000   0.2000000   0.3165591), wk =   0.1280000
        k(    7) = (   0.0000000   0.4000000   0.0000000), wk =   0.0640000
        k(    8) = (   0.0000000   0.4000000   0.1582796), wk =   0.1280000
        k(    9) = (   0.0000000   0.4000000   0.3165591), wk =   0.1280000
        k(   10) = (   0.2000000   0.2000000   0.0000000), wk =   0.0640000
        k(   11) = (   0.2000000   0.2000000   0.1582796), wk =   0.1280000
        k(   12) = (   0.2000000   0.2000000   0.3165591), wk =   0.1280000
        k(   13) = (   0.2000000   0.4000000   0.0000000), wk =   0.1280000
        k(   14) = (   0.2000000   0.4000000   0.1582796), wk =   0.2560000
        k(   15) = (   0.2000000   0.4000000   0.3165591), wk =   0.2560000
        k(   16) = (   0.4000000   0.4000000   0.0000000), wk =   0.0640000
        k(   17) = (   0.4000000   0.4000000   0.1582796), wk =   0.1280000
        k(   18) = (   0.4000000   0.4000000   0.3165591), wk =   0.1280000

     Check: negative core charge=   -0.000006

     Initial potential from superposition of free atoms

     starting charge   39.99529, renormalised to   40.00000
     Starting wfcs are   26 randomized atomic wfcs
     Checking if some PAW data can be deallocated...

     Self-consistent Calculation

     iteration #  1     ecut=    60.00 Ry     beta= 0.70
     Davidson diagonalization with overlap
     ethr =  1.00E-02,  avg # of iterations =  2.3

     total energy              =   -1823.57180400 Ry
     Harris-Foulkes estimate   =   -1824.76969286 Ry
     estimated scf accuracy    <       1.46431133 Ry

[...]

     End of self-consistent calculation

          k = 0.0000 0.0000 0.0000 (  4219 PWs)   bands (ev):

    -9.4933  -8.9685  -7.2563  -7.2563  -7.1988  -7.1876  -7.1121  -7.0416
    -7.0339  -7.0339  -7.0165  -5.6950   1.6044   1.9783   4.6302   4.6302
     7.1337   7.2624   7.2624   8.8056  11.2233  14.3131  14.3131  14.4197

[...]

     the Fermi energy is     9.4528 ev

!    total energy              =   -1824.46954984 Ry
     Harris-Foulkes estimate   =   -1824.46954984 Ry
     estimated scf accuracy    <          6.7E-10 Ry

     total all-electron energy =    -83829.220265 Ry

     The total energy is the sum of the following terms:

     one-electron contribution =    -100.42395690 Ry
     hartree contribution      =      83.36799603 Ry
     xc contribution           =    -103.68780061 Ry
     ewald contribution        =    -227.77260671 Ry
     one-center paw contrib.   =   -1475.95318166 Ry
     smearing contrib. (-TS)   =       0.00000000 Ry

     convergence has been achieved in  10 iterations

     Forces acting on atoms (cartesian axes, Ry/au):

     atom    1 type  2   force =     0.00000000    0.00000000    0.00003285
     atom    2 type  2   force =     0.00000000    0.00000000   -0.00003285
     atom    3 type  1   force =     0.00000000    0.00000000    0.00000000
     atom    4 type  1   force =     0.00000000    0.00000000    0.00000000

     Total force =     0.000046     Total SCF correction =     0.000057
     SCF correction compared to forces is large: reduce conv_thr to get better values

     Computing stress (Cartesian axis) and pressure

          total   stress  (Ry/bohr**3)                   (kbar)     P=       34.57
   0.00027777   0.00000000   0.00000000           40.86        0.00        0.00
   0.00000000   0.00027777   0.00000000            0.00       40.86        0.00
   0.00000000   0.00000000   0.00014936            0.00        0.00       21.97

     BFGS Geometry Optimization

     number of scf cycles    =   1
     number of bfgs steps    =   0

     enthalpy new            =   -1824.4695498389 Ry

     new trust radius        =       0.0321343914 bohr
     new conv_thr            =       0.0000000100 Ry

     new unit-cell volume =    544.81125 a.u.^3 (    80.73270 Ang^3 )
     density =      9.18167 g/cm^3

CELL_PARAMETERS (alat=  7.51052754)
   1.006944354   0.000000000   0.000000000
   0.000000000   1.006944354   0.000000000
   0.000000000   0.000000000   1.268305265

ATOMIC_POSITIONS (crystal)
Pb            0.0000000000        0.5000000000        0.2415547480
Pb            0.5000000000        0.0000000000        0.7584452520
O             0.0000000000        0.0000000000        0.0000000000
O             0.5000000000        0.5000000000        0.0000000000

     Writing output data file ./basic.save/
     NEW-OLD atomic charge density approx. for the potential

     Check: negative core charge=   -0.000006
     extrapolated charge   40.69649, renormalised to   40.00000

[...]

     Total force =     0.011683     Total SCF correction =     0.000059

[...]

     enthalpy old            =   -1824.4695498389 Ry
     enthalpy new            =   -1824.4713985673 Ry

     CASE: enthalpy_new < enthalpy_old

[...]

     negative rho (up, down):  9.301E-04 0.000E+00

[...]

     CASE: enthalpy_new > enthalpy_old

[...]

     number of scf cycles    =  15
     number of bfgs steps    =  13

     enthalpy old            =   -1824.4756105597 Ry
     enthalpy new            =   -1824.4756238258 Ry

     CASE: enthalpy_new < enthalpy_old

     new trust radius        =       0.0211440632 bohr
     new conv_thr            =            1.0E-10 Ry

     new unit-cell volume =    615.78756 a.u.^3 (    91.25030 Ang^3 )
     density =      8.12338 g/cm^3

[...]

ATOMIC_POSITIONS (crystal)
Pb            0.0000000000        0.5000000000        0.2157579690
Pb            0.5000000000        0.0000000000        0.7842420310
O             0.0000000000        0.0000000000        0.0000000000
O             0.5000000000        0.5000000000        0.0000000000

     Writing output data file ./basic.save/
     NEW-OLD atomic charge density approx. for the potential

     Check: negative core charge=   -0.000009
     extrapolated charge   40.23058, renormalised to   40.00000

[...]

     bfgs converged in  16 scf cycles and  14 bfgs steps
     (criteria: energy <  1.0E-04 Ry, force <  1.0E-03Ry/Bohr, cell <  5.0E-01kbar)

     End of BFGS Geometry Optimization

     Final enthalpy =   -1824.4756093402 Ry
Begin final coordinates
     new unit-cell volume =    615.78756 a.u.^3 (    91.25030 Ang^3 )
     density =      8.12338 g/cm^3

CELL_PARAMETERS (alat=  7.51052754)
   1.022445779   0.000000000   0.000000000
   0.000000000   1.022445779   0.000000000
   0.000000000   0.000000000   1.390397588

ATOMIC_POSITIONS (crystal)
Pb            0.0000000000        0.5000000000        0.2157579690
Pb            0.5000000000        0.0000000000        0.7842420310
O             0.0000000000        0.0000000000        0.0000000000
O             0.5000000000        0.5000000000        0.0000000000
End final coordinates

     Writing output data file ./basic.save/

     Final scf calculation at the relaxed structure.
     The G-vectors are recalculated for the final unit cell
     Results may differ from those at the preceding step.

     bravais-lattice index     =            0
     lattice parameter (alat)  =       7.5105  a.u.
     unit-cell volume          =     615.7876 (a.u.)^3
     number of atoms/cell      =            4
     number of atomic types    =            2
     number of electrons       =        40.00
     number of Kohn-Sham states=           24
     kinetic-energy cutoff     =      60.0000  Ry
     charge density cutoff     =     240.0000  Ry
     convergence threshold     =      1.0E-10
     mixing beta               =       0.7000
     number of iterations used =            8  plain     mixing
     Exchange-correlation= PBE
                           (   1   4   3   4   0   0   0)

     celldm(1)=   7.510528  celldm(2)=   0.000000  celldm(3)=   0.000000
     celldm(4)=   0.000000  celldm(5)=   0.000000  celldm(6)=   0.000000

     crystal axes: (cart. coord. in units of alat)
               a(1) = (   1.022446   0.000000   0.000000 )
               a(2) = (   0.000000   1.022446   0.000000 )
               a(3) = (   0.000000   0.000000   1.390398 )

     reciprocal axes: (cart. coord. in units 2 pi/alat)
               b(1) = (  0.978047  0.000000  0.000000 )
               b(2) = (  0.000000  0.978047  0.000000 )
               b(3) = (  0.000000  0.000000  0.719219 )

     PseudoPot. # 1 for O  read from file:
     ./O.pbe-n-kjpaw_psl.0.1.UPF
     MD5 check sum: 833c495a5d0f9b75bf046115549bffff
     Pseudo is Projector augmented-wave + core cor, Zval =  6.0
     Generated using "atomic" code by A. Dal Corso v.6.3
     Shape of augmentation charge: BESSEL
     Using radial grid of 1095 points,  4 beta functions with:
                l(1) =   0
                l(2) =   0
                l(3) =   1
                l(4) =   1
     Q(r) pseudized with 0 coefficients

     PseudoPot. # 2 for Pb read from file:
     ./Pb.pbe-dn-kjpaw_psl.0.2.2.UPF
     MD5 check sum: f59221ed870a8203cfe6076f2d6248d0
     Pseudo is Projector augmented-wave + core cor, Zval = 14.0
     Generated using "atomic" code by A. Dal Corso v.5.0.2 svn rev. 9415
     Shape of augmentation charge: PSQ
     Using radial grid of 1281 points,  6 beta functions with:
                l(1) =   0
                l(2) =   0
                l(3) =   1
                l(4) =   1
                l(5) =   2
                l(6) =   2
     Q(r) pseudized with 0 coefficients

     atomic species   valence    mass     pseudopotential
        O              6.00    15.99900     O ( 1.00)
        Pb            14.00   207.20000     Pb( 1.00)

     16 Sym. Ops., with inversion, found ( 8 have fractional translation)

   Cartesian axes

     site n.     atom                  positions (alat units)
         1           Pb  tau(   1) = (   0.0000000   0.5112229   0.2999894  )
         2           Pb  tau(   2) = (   0.5112229   0.0000000   1.0904082  )
         3           O   tau(   3) = (   0.0000000   0.0000000   0.0000000  )
         4           O   tau(   4) = (   0.5112229   0.5112229   0.0000000  )

     number of k points=    18  Marzari-Vanderbilt smearing, width (Ry)=  0.0050
                       cart. coord. in units 2pi/alat
        k(    1) = (   0.0000000   0.0000000   0.0000000), wk =   0.0160000
        k(    2) = (   0.0000000   0.0000000   0.1438437), wk =   0.0320000
        k(    3) = (   0.0000000   0.0000000   0.2876875), wk =   0.0320000
        k(    4) = (   0.0000000   0.1956094   0.0000000), wk =   0.0640000
        k(    5) = (   0.0000000   0.1956094   0.1438437), wk =   0.1280000
        k(    6) = (   0.0000000   0.1956094   0.2876875), wk =   0.1280000
        k(    7) = (   0.0000000   0.3912188   0.0000000), wk =   0.0640000
        k(    8) = (   0.0000000   0.3912188   0.1438437), wk =   0.1280000
        k(    9) = (   0.0000000   0.3912188   0.2876875), wk =   0.1280000
        k(   10) = (   0.1956094   0.1956094   0.0000000), wk =   0.0640000
        k(   11) = (   0.1956094   0.1956094   0.1438437), wk =   0.1280000
        k(   12) = (   0.1956094   0.1956094   0.2876875), wk =   0.1280000
        k(   13) = (   0.1956094   0.3912188   0.0000000), wk =   0.1280000
        k(   14) = (   0.1956094   0.3912188   0.1438437), wk =   0.2560000
        k(   15) = (   0.1956094   0.3912188   0.2876875), wk =   0.2560000
        k(   16) = (   0.3912188   0.3912188   0.0000000), wk =   0.0640000
        k(   17) = (   0.3912188   0.3912188   0.1438437), wk =   0.1280000
        k(   18) = (   0.3912188   0.3912188   0.2876875), wk =   0.1280000

     Check: negative core charge=   -0.000006

     Initial potential from superposition of free atoms

     starting charge   39.99529, renormalised to   40.00000
     Starting wfcs are   26 randomized atomic wfcs
     Checking if some PAW data can be deallocated...

     Self-consistent Calculation

     iteration #  1     ecut=    60.00 Ry     beta= 0.70
     Davidson diagonalization with overlap
     c_bands:  1 eigenvalues not converged
     ethr =  1.00E-06,  avg # of iterations = 14.1

[...]

     total energy              =   -1824.47665273 Ry
     Harris-Foulkes estimate   =   -1824.47665273 Ry
     estimated scf accuracy    <          1.6E-10 Ry

     iteration # 17     ecut=    60.00 Ry     beta= 0.70
     Davidson diagonalization with overlap
     ethr =  4.00E-13,  avg # of iterations =  4.2

     End of self-consistent calculation

[...]

          k = 0.3912 0.3912 0.2877 (  4806 PWs)   bands (ev):

   -10.6582 -10.6258  -8.8416  -8.8245  -8.7929  -8.7839  -8.7729  -8.7676
    -8.7604  -8.7556  -8.0598  -7.9010  -0.8452  -0.6165   3.2627   3.7919
     5.1820   5.5074   5.7521   6.1165  10.0377  10.3606  11.1283  11.8325

     the Fermi energy is     6.9907 ev

!    total energy              =   -1824.47665273 Ry
     Harris-Foulkes estimate   =   -1824.47665273 Ry
     estimated scf accuracy    <          8.7E-12 Ry

     total all-electron energy =    -83829.227367 Ry

     The total energy is the sum of the following terms:

     one-electron contribution =    -137.05737328 Ry
     hartree contribution      =      99.20957311 Ry
     xc contribution           =    -103.58548313 Ry
     ewald contribution        =    -207.09606700 Ry
     one-center paw contrib.   =   -1475.94734483 Ry
     smearing contrib. (-TS)   =       0.00004240 Ry

     convergence has been achieved in  17 iterations

     Forces acting on atoms (cartesian axes, Ry/au):

     atom    1 type  2   force =     0.00000000    0.00000000    0.00014734
     atom    2 type  2   force =     0.00000000    0.00000000   -0.00014734
     atom    3 type  1   force =     0.00000000    0.00000000    0.00000000
     atom    4 type  1   force =     0.00000000    0.00000000    0.00000000

     Total force =     0.000208     Total SCF correction =     0.000002

     Computing stress (Cartesian axis) and pressure

          total   stress  (Ry/bohr**3)                   (kbar)     P=       -0.36
  -0.00000171   0.00000000   0.00000000           -0.25        0.00        0.00
   0.00000000  -0.00000171   0.00000000            0.00       -0.25        0.00
   0.00000000   0.00000000  -0.00000392            0.00        0.00       -0.58

     Writing output data file ./basic.save/

     General routines

     Parallel routines

   This run was terminated on:   0:42:39  15Aug2020

   JOB DONE.